LAMMPS data file via write_data, version 4 Jul 2026, timestep = 1000000, units = real

987 atoms
5 atom types
658 bonds
3 bond types
329 angles
2 angle types

0 30 xlo xhi
0 30 ylo yhi
0 30 zlo zhi

Masses

1 15.035
2 12.0107
3 14.0067
4 12.0107
5 15.9994

Atoms # full

214 72 1 0.269 3.3247966191033367 4.8869475699816185 3.3885644983566534 0 0 1
215 72 2 0.129 3.351737302525882 4.632440778975079 4.907149528214443 0 0 1
216 72 3 -0.398 3.3719778029933405 4.441230157420168 6.048060488958247 0 0 1
736 246 1 0.269 5.049939638918702 1.2404471952175444 3.9565354233199637 0 1 0
465 155 3 -0.398 6.83874383211387 3.215414164576658 0.9730721131153592 1 0 0
464 155 2 0.129 6.867833516046384 2.4605055752536074 0.09676405537774488 1 0 0
273 91 3 -0.398 6.974679179885375 3.5378442177377667 5.047043928128158 0 0 0
272 91 2 0.129 7.115901103707038 4.508512414353781 4.433440945484151 0 0 0
271 91 1 0.269 7.303871512250994 5.800499469486591 3.616717874376306 0 0 0
776 259 2 0.129 0.385759164394278 2.8041344361029545 0.7172988269506959 1 0 1
376 126 1 0.269 0.584567661069376 0.7848600313164158 7.250216035779742 0 0 0
356 119 2 0.129 0.6779140294816486 0.34765093086610904 3.942266987967609 0 -1 0
948 316 3 -0.398 3.704385829710529 5.103151560530281 0.568345880517574 0 0 1
357 119 3 -0.398 1.794265704444789 0.4587491751508607 4.225224790342761 0 -1 0
626 209 2 0.129 8.8610550645827 6.14959225837086 0.33608603285155314 -1 0 0
787 263 1 0.269 13.942829155514316 4.940417980983311 1.7980950799633098 0 0 0
303 101 3 -0.398 10.191321233938279 5.62198494533744 6.551591010174904 0 0 0
302 101 2 0.129 11.166073018113238 5.841178374511538 5.968099622187613 0 0 0
676 226 1 0.269 8.961694671377687 1.413775025079409 2.719041962367352 -1 -1 1
677 226 2 0.129 10.449515683859756 1.7409605338654386 2.4933468634913236 -1 -1 1
788 263 2 0.129 14.510803341615459 4.217549738868117 3.0335977422279807 0 0 0
661 221 1 0.269 12.656926626885836 1.7988813867190414 5.300634994790527 -1 0 0
614 205 2 0.129 8.764165448583675 0.23106395044957762 6.621340186386757 0 0 1
678 226 3 -0.398 11.56731367830245 1.9867745817001417 2.3237824288162763 -1 -1 1
301 101 1 0.269 12.463495444759245 6.132931080585957 5.191455942411968 0 0 0
662 221 2 0.129 12.536644979692541 2.088974768666012 6.80827492365275 -1 0 0
625 209 1 0.269 10.058289179723548 5.1835657287928365 0.26521137098803005 -1 0 0
789 263 3 -0.398 14.937521610004437 3.6744597673569 3.96182928783852 0 0 0
627 209 3 -0.398 7.961574628726884 6.875366735462924 0.389334074264605 -1 0 0
495 165 3 -0.398 14.739045674307162 4.7917496205946435 7.28181586103826 0 0 0
24 8 3 -0.398 15.899813381544455 7.247567117597385 4.261341628597001 0 0 0
2 1 2 0.129 19.559569165489098 5.565095022340272 2.404022625637334 -1 0 0
814 272 1 0.269 21.443738085205062 2.9893976549084464 4.67450288786149 0 0 1
815 272 2 0.129 20.497400642641868 1.9385739263943158 4.0647365913227045 0 0 1
3 1 3 -0.398 20.472075602906553 4.859307144220984 2.315453597352216 -1 0 0
1 1 1 0.269 18.344997070741577 6.5045188186269725 2.5219105284541734 -1 0 0
523 175 1 0.269 17.885427573885586 4.110140361074042 6.235275136159005 0 0 1
816 272 3 -0.398 19.786418551053803 1.149091423867789 3.606619964637397 0 0 1
524 175 2 0.129 19.236139625980222 4.651909126209208 6.738925369405734 0 0 1
525 175 3 -0.398 20.250927836547426 5.058939295859452 7.117317135552793 0 0 1
130 44 1 0.269 21.310380393133745 7.36153737993017 4.921300496952004 0 0 0
898 300 1 0.269 17.370679080806806 2.009391699833204 1.8067574263209158 0 0 0
476 159 2 0.129 22.396718536619456 1.3901419968418158 0.14245712839693705 0 0 1
475 159 1 0.269 21.352893692382374 0.3064664032330032 0.4705987173016857 0 0 1
899 300 2 0.129 17.813104362546785 2.9886691831451597 0.7036366347691406 0 0 0
728 243 2 0.129 17.456724253710835 0.5140891772391579 7.354619491273971 0 0 0
729 243 3 -0.398 18.597342987065996 0.6101776444474984 7.186081923979113 0 0 0
777 259 3 -0.398 29.633919602411197 3.453435170835405 1.3104217728171514 0 0 1
165 55 3 -0.398 28.266047296821263 3.282126342845062 6.63827031275344 -1 1 0
164 55 2 0.129 28.687862920844392 3.560739465766661 5.597551663422472 -1 1 0
319 107 1 0.269 26.633333903167923 3.9790204793362927 0.25546516241153405 -1 1 1
439 147 1 0.269 24.68429897503358 0.36361711892034054 2.745907529675245 -1 0 0
440 147 2 0.129 25.336001352182517 1.2746972609714973 3.8027031515333767 -1 0 0
441 147 3 -0.398 25.825624501767788 1.959190588473568 4.596672329773545 -1 0 0
150 50 3 -0.398 24.017992883830516 5.424333287648609 5.297827323202311 -1 0 0
149 50 2 0.129 24.341855990183472 4.5901834732374445 6.031282008552096 -1 0 0
148 50 1 0.269 24.772927021975647 3.4799062786020123 7.007531114376359 -1 0 0
163 55 1 0.269 29.249311547461183 3.9315814789898824 4.212325457744264 -1 1 0
918 306 3 -0.398 22.777575637173477 0.19704232977224168 7.487841280214679 0 0 0
355 119 1 0.269 29.192018109478852 0.19977599897456164 3.5656420824725896 -1 -1 0
588 196 3 -0.398 0.4372197341977795 7.824926436257125 3.7021218488416014 -1 0 0
18 6 3 -0.398 4.730763430160024 8.552519124570356 3.684500340091512 1 0 0
17 6 2 0.129 4.327036012877938 8.3857386545768 4.755872099736102 1 0 0
154 52 1 0.269 3.807527458217348 14.279261044337971 2.054477965174769 1 0 0
16 6 1 0.269 3.789663305346031 8.16374909209618 6.181898469530977 1 0 0
666 222 3 -0.398 5.618969062084604 12.406680446995457 3.934286381760246 0 0 0
665 222 2 0.129 5.4329108389224325 12.181702139263331 5.053847053918271 0 0 0
155 52 2 0.129 2.4575168251379957 13.569533928910953 2.2674538140387526 1 0 0
156 52 3 -0.398 1.443255589766045 13.036316868814158 2.4274622926982543 1 0 0
664 222 1 0.269 5.185262037133544 11.882249594831624 6.5440142407145965 0 0 0
556 186 1 0.269 1.2298630852139563 13.02071705822109 5.883310004184596 -1 -1 1
518 173 2 0.129 5.747261166021789 11.46850999993493 0.4788058684484067 0 0 1
586 196 1 0.269 1.4685680806692842 10.04192342461819 2.564117480736041 -1 0 0
587 196 2 0.129 0.8796632035591142 8.776007457960407 3.2139234602994677 -1 0 0
517 173 1 0.269 5.78650844951551 10.31591383586117 1.4993849850784347 0 0 1
248 83 2 0.129 0.09132784218351189 8.460111649948058 6.716786791176519 0 0 0
249 83 3 -0.398 1.0066176512245337 9.071377046771863 6.360068162404646 0 0 0
557 186 2 0.129 1.6950614270067668 14.449326322226366 5.545277352518349 -1 -1 1
192 64 3 -0.398 11.715890233867633 7.886025791286218 1.2940501279763565 0 0 0
292 98 1 0.269 7.785088787833809 14.68374768566589 2.7917115399479395 0 0 0
1068 356 5 -0.35 8.967084640747217 11.20907327330555 6.0028385807089855 0 0 1
294 98 3 -0.398 9.619944980833179 12.707472658524246 2.829774226402433 0 0 0
293 98 2 0.129 8.832800518356247 13.55528511918531 2.8134455173820987 0 0 0
1066 356 4 0.7 8.288716542329512 10.375730385858079 5.565853048923291 0 0 1
1067 356 5 -0.35 7.610348443911807 9.542387498410607 5.128867517137596 0 0 1
424 142 1 0.269 12.78640462710002 12.82244748070733 3.9270915839122433 0 0 0
191 64 2 0.129 11.022772195737877 8.30696327411512 2.1193064643765 0 0 0
190 64 1 0.269 10.100212317846932 8.867243069756013 3.2177461861191383 0 0 0
54 18 3 -0.398 11.84051030184122 9.872445271675039 5.609579051356485 0 0 0
425 142 2 0.129 14.313521656637409 12.849069632498258 3.7301021447815983 0 0 0
305 102 2 0.129 14.169156155220515 10.066574868497996 1.1235267281595684 0 0 0
306 102 3 -0.398 13.421203230763028 10.697740537056953 0.5064000623700177 0 0 0
53 18 2 0.129 11.535310909023485 9.501840329827543 6.662268135417997 0 0 0
22 8 1 0.269 16.634228858619014 7.837542101247984 6.788468935579431 0 0 0
23 8 2 0.129 16.21487408120158 7.500663541803445 5.345467062107818 0 0 0
131 44 2 0.129 20.099838747784368 8.313142785010877 4.896079912183486 0 0 0
426 142 3 -0.398 15.46084269765998 12.86907082056456 3.5821042349931824 0 0 0
1070 357 5 -0.35 18.895512100010933 10.694542252278527 2.1828051545776903 0 0 0
1069 357 4 0.7 19.324225281085933 11.180736093455248 3.1447929700795965 0 0 0
1071 357 5 -0.35 19.752938462160934 11.66692993463197 4.106780785581503 0 0 0
47 16 2 0.129 21.870391170250286 11.03216284684158 0.7451768101290431 -1 1 0
304 102 1 0.269 15.164702830816479 9.226475361513732 1.944939922036759 0 0 0
952 318 1 0.269 18.216221893864326 14.164050018473038 4.9631379009773475 -1 0 0
126 42 3 -0.398 20.95460782239266 13.434169697112326 2.0451940613787225 0 0 1
132 44 3 -0.398 19.190360381765384 9.028082689996838 4.877131719600908 0 0 0
46 16 1 0.269 22.43664644292063 10.168126279221706 1.8872782837242514 -1 1 0
125 42 2 0.129 20.880756091959448 14.459553033891057 1.514360815840373 0 0 1
843 281 3 -0.398 17.17320302734513 12.859833991017227 0.005755140242051482 -1 -1 1
247 83 1 0.269 28.873051000417586 7.646499972239621 7.191589460414795 -1 0 0
711 237 3 -0.398 23.738221762833255 9.320481796381385 4.633171316354248 -1 0 1
679 227 1 0.269 22.568023804108357 11.910429795359514 5.840772213350434 -1 -1 0
710 237 2 0.129 24.505679048385034 8.574430449179157 4.19377889244303 -1 0 1
680 227 2 0.129 23.65454780934125 12.850657074311925 5.286661890431765 -1 -1 0
709 237 1 0.269 25.527186584901663 7.581414827146803 3.6089350438490135 -1 0 1
553 185 1 0.269 28.13712099679643 11.040037865612149 4.4538556112599785 0 0 0
554 185 2 0.129 27.68665290648421 10.461755073112 3.099504286266692 0 0 0
555 185 3 -0.398 27.34821681525613 10.02729196212326 2.0819818946970603 0 0 0
681 227 3 -0.398 24.470851883402585 13.557048607914485 4.8703595244467595 -1 -1 0
694 232 1 0.269 26.502662066282234 14.270761073184202 2.590383904272081 -1 -1 1
695 232 2 0.129 25.656832544682388 13.236353107493779 1.82476482084622 -1 -1 1
696 232 3 -0.398 25.021361923584315 12.459203746257531 1.2495561977788638 -1 -1 1
643 215 1 0.269 4.6899763752364185 1.1279236441405054 7.517379751534552 0 0 0
263 88 2 0.129 4.764732968809137 0.7621851694765703 12.31722169218033 0 0 0
264 88 3 -0.398 3.7700556335697044 0.37826707641847684 12.766524370320765 0 0 0
660 220 3 -0.398 4.017632009783848 6.699973788680772 9.059428705145422 0 0 0
658 220 1 0.269 1.7760561725493598 5.237790890093694 8.72601014387048 0 0 0
659 220 2 0.129 3.056006780388111 6.072704373157877 8.916393749492803 0 0 0
645 215 3 -0.398 2.8130692815512206 1.848667973428995 9.315032769629354 0 0 0
644 215 2 0.129 3.6182533777298533 1.5394721302748309 8.54384828986084 0 0 0
283 95 1 0.269 1.1444152269161951 1.9175400707989976 12.080391369547087 0 0 -1
262 88 1 0.269 6.0886768722393265 1.273191101464004 11.719187012546563 0 0 0
566 189 2 0.129 5.094234333062502 5.062713194296698 12.520218377783516 1 0 0
567 189 3 -0.398 4.259452896708823 4.361088018186479 12.906884985816728 1 0 0
565 189 1 0.269 6.205352234518573 5.9965963154805735 12.00555409397095 1 0 0
316 106 1 0.269 7.027431956321837 5.6093512829722165 8.17854831706402 0 0 0
317 106 2 0.129 7.038590227527176 4.145315899372553 8.65612123144521 0 0 0
318 106 3 -0.398 7.046973422192479 3.045388017018783 9.014921141795236 0 0 0
652 218 1 0.269 1.8868663496127598 7.241019254652906 13.551610136206092 1 0 1
369 123 3 -0.398 8.082560328236973 3.2555601687285565 13.804302875902922 0 1 0
613 205 1 0.269 8.997328260169516 0.9437570030439815 7.966443794320878 0 0 1
663 221 3 -0.398 12.446277534366148 2.3069215497781186 7.940962844233001 -1 0 0
494 165 2 0.129 14.081868992279256 4.928723383834712 8.224156562049185 0 0 0
499 167 1 0.269 11.256525565322633 3.1210186690544908 12.12566113272331 -1 0 1
500 167 2 0.129 12.709353339650253 2.62035977144815 12.024507159050176 -1 0 1
501 167 3 -0.398 13.800860959713269 2.244215391882864 11.948510309998344 -1 0 1
493 165 1 0.269 13.207148084480659 5.111039369478364 9.478438912573663 0 0 0
331 111 1 0.269 9.473193262867525 7.339725835097685 14.148676892300191 0 0 -1
368 123 2 0.129 8.477905180568955 3.2460506669629887 14.891621144447761 0 1 0
727 243 1 0.269 15.938528186842255 0.38619268674578044 7.578947800378623 0 0 0
867 289 3 -0.398 16.147165558411732 5.257943646661098 11.11833584218971 0 0 0
866 289 2 0.129 16.38269908989884 4.176867030568249 10.780036705800148 0 0 0
504 168 3 -0.398 20.152731619514498 3.3941750456116955 11.861588702921237 -1 0 0
503 168 2 0.129 19.771262233693534 4.472170365435624 12.037816391209022 -1 0 0
502 168 1 0.269 19.263515600880858 5.907012882746642 12.272380470693205 -1 0 0
865 289 1 0.269 16.69620093820493 2.7379232200384367 10.329750906284218 0 0 0
976 326 4 0.7 22.252261964318418 3.768565395884706 9.778404229148524 0 1 0
977 326 5 -0.35 22.401438229276973 4.910382737017587 9.638405652508403 0 1 0
433 145 1 0.269 15.680372773292307 3.096073507158467 14.457977797894415 -1 1 0
978 326 5 -0.35 22.103085699359866 2.6267480547518214 9.918402805788647 0 1 0
514 172 1 0.269 19.40552480461069 2.643972962223403 14.964446365663136 0 1 0
432 144 3 -0.398 26.117481988067983 0.22780176782289588 11.162979105998138 -1 0 0
284 95 2 0.129 29.97432496006825 2.6740409273706107 11.424498679059168 -1 0 -1
418 140 1 0.269 26.621905885187196 5.62329057158194 11.24539655431277 -1 0 -1
285 95 3 -0.398 29.095237662183145 3.24239903844422 10.931727352504282 -1 0 -1
419 140 2 0.129 25.964600488466747 4.353109273305725 10.674266897445886 -1 0 -1
431 144 2 0.129 26.22215957209076 0.394856321891455 10.022898240722308 -1 0 0
286 96 1 0.269 23.3406068088199 1.7017323919353131 13.014667440193735 0 0 0
430 144 1 0.269 26.361488422043287 0.6172106980933418 8.505418091608407 -1 0 0
420 140 3 -0.398 25.470767797554046 3.3988237134969026 10.245177927968623 -1 0 -1
280 94 1 0.269 27.61629794255892 1.9117272919153097 13.823834508234688 0 0 -1
28 10 1 0.269 23.09755743709549 6.883478143246973 14.29510713841807 0 0 0
287 96 2 0.129 24.265395354594453 2.883311893108289 13.361418111443163 0 0 0
288 96 3 -0.398 24.96018778801079 3.7710310378207117 13.62193144042731 0 0 0
29 10 2 0.129 22.59216972706898 7.321872655982563 12.908026205754913 0 0 0
883 295 1 0.269 1.247814732723568 12.70547241607105 14.545581167650596 0 0 1
563 188 2 0.129 2.692616162252009 14.252995903381944 9.056765829505386 0 0 0
564 188 3 -0.398 3.1818132474705942 13.252394680138433 8.743504909732698 0 0 0
654 218 3 -0.398 1.0412584191358611 9.768881783910244 13.962301335392013 1 0 1
653 218 2 0.129 1.4040201453360008 8.684440943587388 13.78611679054288 1 0 1
762 254 3 -0.398 0.5524266812449201 8.20969273392344 10.25811331902466 0 0 1
761 254 2 0.129 1.2054690873161487 9.150808669246926 10.095369925446523 0 0 1
760 254 1 0.269 2.0746871558984283 10.403460821708611 9.878753826820493 0 0 1
529 177 1 0.269 4.21339595926526 10.702451055161706 14.492047658046564 0 -1 0
530 177 2 0.129 5.263451871588836 9.686327872981765 14.005759410572452 0 -1 0
204 68 3 -0.398 4.820545146297229 12.826780369430471 11.864278299207871 0 0 -1
203 68 2 0.129 5.590659491812222 13.247743491326268 11.110379801507403 0 0 -1
202 68 1 0.269 6.615703650924658 13.808057413296474 10.106919398345156 0 0 -1
531 177 3 -0.398 6.05235751480856 8.922915845850472 13.640411681788338 0 -1 0
115 39 1 0.269 5.785606376892712 9.51595158109217 10.157056918906308 0 0 0
116 39 2 0.129 6.846576917585921 9.7335626164842 9.062256960439786 0 0 0
885 295 3 -0.398 0.6507314128587458 13.40746896199873 12.010921159159164 0 0 1
884 295 2 0.129 0.906877279037314 13.106315827538838 13.098278085308436 0 0 1
857 286 2 0.129 11.722076182459599 14.90425791148931 13.0867680836299 -1 0 0
333 111 3 -0.398 9.725972646939773 7.6713546091593985 11.484106769522912 0 0 -1
332 111 2 0.129 9.617531509612522 7.529087463594179 12.627194508511906 0 0 -1
133 45 1 0.269 14.845228313620042 8.218668041716926 12.157644169748313 0 0 0
117 39 3 -0.398 7.643682706924911 9.897053504762502 8.239735173462018 0 0 0
858 286 3 -0.398 11.953127105995824 14.788651950876075 14.214553405667754 -1 0 0
609 203 3 -0.398 12.37370378932384 12.954421371768381 8.019327689425412 0 0 1
608 203 2 0.129 11.287474790074317 13.32554306931524 7.874330286693238 0 0 1
607 203 1 0.269 9.841673010606499 13.819516633897912 7.681334608035024 0 0 1
58 20 1 0.269 13.711734718468673 11.590376185146324 14.942763356193607 0 0 0
186 62 3 -0.398 9.219257672225691 12.78723120887797 11.552897499559034 0 0 0
59 20 2 0.129 14.487261138430208 12.38212833060739 13.873517214232049 0 0 0
135 45 3 -0.398 12.606611538099187 8.314703350269317 13.658704179166813 0 0 0
185 62 2 0.129 9.950905989205033 11.89094721921488 11.549056909163783 0 0 0
184 62 1 0.269 10.924750767206929 10.697967665125717 11.54394497380623 0 0 0
52 18 1 0.269 11.129081812273867 9.008554581819636 8.06342733114378 0 0 0
134 45 2 0.129 13.56696734428296 8.27350466580691 13.014756670491542 0 0 0
159 53 3 -0.398 14.597806907258194 9.081704113341063 8.833448148095334 0 0 -1
158 53 2 0.129 14.805154053066667 10.208259621103187 8.670571357068726 0 0 -1
784 262 1 0.269 7.512836571061726 13.829083737756243 14.285869222186866 0 -1 0
19 7 1 0.269 21.62515052942922 14.791281888850312 13.639298309655782 -1 -1 0
60 20 3 -0.398 15.069913130570132 12.976970689242753 13.070193976407685 0 0 0
253 85 1 0.269 17.655148426588035 13.99772483681054 10.47195828731261 -1 -1 0
254 85 2 0.129 18.302984717239287 13.451386589933007 9.186103450827652 -1 -1 0
894 298 3 -0.398 19.032466332656796 9.143210547894856 10.519709010443993 -1 1 0
893 298 2 0.129 19.667298832212904 9.531074417507071 9.633594843895876 -1 1 0
313 105 1 0.269 19.324612558242116 9.537590021631475 14.157813853560294 -1 0 0
314 105 2 0.129 17.85147771892319 9.651383311470418 14.592008317334201 -1 0 0
315 105 3 -0.398 16.744713427305 9.736876062342924 14.918218054078629 -1 0 0
892 298 1 0.269 20.512278995839882 10.047332290629635 8.454151614436837 -1 1 0
157 53 1 0.269 15.081139018101279 11.70773713359555 8.453777702634005 0 0 -1
255 85 3 -0.398 18.789703281059737 13.040923374584109 8.220042382117848 -1 -1 0
30 10 3 -0.398 22.212472596873738 7.651237884057285 11.865914102448894 0 0 0
1089 363 5 -0.35 22.242418187749383 10.83378010672612 11.741447652754264 0 0 0
63 21 3 -0.398 27.736526815340266 11.271528888261907 14.80906410308714 -1 0 0
69 23 3 -0.398 28.75901180009779 10.895189415465191 8.397906312240998 -1 0 0
895 299 1 0.269 27.28862491918949 14.234215257646168 13.65152424681739 -1 0 0
937 313 1 0.269 26.13495557420136 13.5791538057082 7.6896334375829145 -1 0 0
243 81 3 -0.398 23.683636461822434 11.689874804748001 9.364100427695659 -1 0 0
242 81 2 0.129 23.518993883936734 12.795032785874996 9.66437972817828 -1 0 0
241 81 1 0.269 23.29984991682872 14.266029580114903 10.064060041698799 -1 0 0
896 299 2 0.129 26.040310801916238 13.866228449750066 12.828178891678384 -1 0 0
68 23 2 0.129 28.277603772530096 10.877523935948139 9.449848916105942 -1 0 0
744 248 3 -0.398 26.377112193771502 8.217729561988355 9.436483700254136 -1 0 0
743 248 2 0.129 25.41917555961878 8.427724253875713 8.822554849061921 -1 0 0
939 313 3 -0.398 28.662265911380953 14.513686627923265 7.574916988066752 -1 0 0
1087 363 4 0.7 23.298426559667035 10.77365621019431 12.21771589178105 0 0 0
742 248 1 0.269 24.144134577254743 8.707233178254743 8.00539803762197 -1 0 0
938 313 2 0.129 27.578061958797786 14.112776551800598 7.624129791956332 -1 0 0
541 181 1 0.269 27.313537769575813 8.413409370105143 14.199130370725717 -1 0 0
67 23 1 0.269 27.636835957098594 10.854010678855431 10.850014525398953 -1 0 0
897 299 3 -0.398 25.10245402679601 13.589760438882669 12.209600595642128 -1 0 0
1088 363 5 -0.35 24.354434931584688 10.713532313662501 12.693984130807838 0 0 0
1076 359 5 -0.35 4.809489695227473 3.8436799152671783 21.79728595559497 0 0 0
837 279 3 -0.398 2.615795570688672 0.9461830662767201 21.709175106295277 0 0 0
698 233 2 0.129 3.2018786768456327 2.4185189627723367 16.782095146963808 -1 1 0
699 233 3 -0.398 3.9522452544715607 1.9939049263620368 17.55365325836223 -1 1 0
1075 359 4 0.7 4.184932508885182 3.859608169462818 20.81990444783749 0 0 0
79 27 1 0.269 6.431471407009855 0.9710171896777247 21.1296132105623 -1 0 0
1077 359 5 -0.35 3.5603753225428902 3.875536423658458 19.842522940080013 0 0 0
80 27 2 0.129 6.990014265605398 1.5882039783247348 19.8339626623701 -1 0 0
697 233 1 0.269 2.203119360040161 2.9836923560928676 15.75512929428139 -1 1 0
97 33 1 0.269 5.7683520530308465 5.364314919889038 17.765979180610305 0 0 -1
98 33 2 0.129 4.712524872734286 5.975670998106045 16.82625969535203 0 0 -1
99 33 3 -0.398 3.919283283381612 6.434982025701544 16.1202496664924 0 0 -1
76 26 1 0.269 1.009602859011015 6.503054040230971 17.488437224944466 0 0 -1
936 312 3 -0.398 4.4683649893516915 6.723238548914571 20.24534829394573 0 0 0
81 27 3 -0.398 7.409646789887894 2.0518956110939506 18.86054208817635 -1 0 0
935 312 2 0.129 3.767655706668663 7.373628756048422 20.89699856796299 0 0 0
913 305 1 0.269 8.022821341748935 5.443824375423732 20.885730441379962 0 0 -1
914 305 2 0.129 9.556875766970204 5.467206380706228 20.752575260151374 0 0 -1
915 305 3 -0.398 10.70940886436048 5.484773250908733 20.652535945423136 0 0 -1
367 123 1 0.269 9.004120455064411 3.233393248882634 16.338872772415822 0 1 0
13 5 1 0.269 11.337567151986793 2.005493304358179 22.1420952209979 0 0 -1
428 143 2 0.129 12.133382746994291 4.989038824631836 17.396536366119676 -1 0 -1
427 143 1 0.269 12.855880260566517 4.129088294131195 18.450140859263346 -1 0 -1
140 47 2 0.129 11.669781834666404 0.20413859758331082 16.326208839979003 0 0 -1
429 143 3 -0.398 11.590571303355933 5.635118541378094 16.60496467873836 -1 0 -1
139 47 1 0.269 12.970821520597603 0.8229565148990231 15.78218667053928 0 0 -1
624 208 3 -0.398 14.290320169361006 1.8269042246461125 20.39146957819798 -1 0 -1
37 13 1 0.269 13.924675106799373 4.414845768142538 22.399076388451427 0 1 0
516 172 3 -0.398 18.606723902857254 0.5039969425814337 16.398401997723358 0 1 0
435 145 3 -0.398 15.440010805252 2.96459390490363 17.141026108772852 -1 1 0
655 219 1 0.269 17.67452311873545 5.248668533675133 20.924657199780643 0 0 0
656 219 2 0.129 18.635907809436695 4.215964024922831 20.30751793341694 0 0 0
657 219 3 -0.398 19.35819487900899 3.4400944686719157 19.843862004077454 0 0 0
515 172 2 0.129 18.94940563935289 1.4220363399584321 15.783241943480249 0 1 0
685 229 1 0.269 20.985433919155206 5.980903043926011 17.441407596233372 0 0 0
686 229 2 0.129 19.914758303031086 5.927937659069861 16.335763714577272 0 0 0
434 145 2 0.129 15.543124930955612 3.0209980205168425 15.990011316156481 -1 1 0
623 208 2 0.129 15.322193691811117 1.52925249470529 19.961016931172736 -1 0 -1
687 229 3 -0.398 19.11036110312485 5.88814483421365 15.505094902190192 0 0 0
622 208 1 0.269 16.695646781329838 1.1330695525195744 19.388072180594627 -1 0 -1
922 308 1 0.269 20.783764968874294 1.0635086866211962 21.77587022474604 -1 0 0
591 197 3 -0.398 15.033943426089705 7.423581239895854 20.689403372112224 0 0 0
532 178 1 0.269 15.565125123000513 6.992259074799569 15.866884487530864 0 0 0
533 178 2 0.129 16.748960726069726 7.104961057110003 16.845368788933133 0 0 0
534 178 3 -0.398 17.638374877206793 7.189633910053615 17.58050277381782 0 0 0
408 136 3 -0.398 20.313402056074572 6.963572947230264 22.09188721756151 -1 0 -1
226 76 1 0.269 29.686180880336458 2.6672709558244434 20.410929920873652 -1 0 0
542 181 2 0.129 27.847752382561847 7.259293567023089 15.06759537309967 -1 0 0
282 94 3 -0.398 28.608661032825633 2.6317260320470086 16.22604730298976 0 0 -1
227 76 2 0.129 29.24230456722737 1.2184035411051615 20.68544227619477 -1 0 0
875 292 2 0.129 28.15816130650077 6.248043752508526 21.553881801025007 -1 0 -1
228 76 3 -0.398 28.90882086965126 0.1298713340725577 20.891683052237973 -1 0 0
650 217 2 0.129 25.06682308574351 6.99276140243003 18.086013825836766 -1 -1 0
649 217 1 0.269 26.396025847837695 6.3596261878717515 18.53763293230393 -1 -1 0
129 43 3 -0.398 22.722167630881046 3.229295547417401 17.27671268974635 0 0 0
127 43 1 0.269 25.37546891286314 3.0785897391730868 16.817268388015236 0 0 0
128 43 2 0.129 23.86042109148664 3.164643482108292 17.079613298903602 0 0 0
168 56 3 -0.398 25.22127992378911 4.670401632454637 21.384354628166527 0 0 0
167 56 2 0.129 24.10951347080857 4.639265742857695 21.065520956158444 0 0 0
876 292 3 -0.398 28.852844712370338 6.005215978021154 20.66107799416409 -1 0 -1
166 56 1 0.269 22.629720612044494 4.597822985745084 20.641144244929013 0 0 0
123 41 3 -0.398 23.408285850468992 0.8719360811229964 20.761181625991355 -1 0 0
651 217 3 -0.398 24.068194776819503 7.468435066874138 17.746712977666306 -1 -1 0
543 181 3 -0.398 28.24910712751303 6.3922078630192365 15.720072001506587 -1 0 0
122 41 2 0.129 24.3764335312663 0.3810841596412273 20.360677619338475 -1 0 0
281 94 2 0.129 28.18294205046056 2.3228500430472443 15.195509593115224 0 0 -1
753 251 3 -0.398 4.358810299644377 13.706868989742727 16.13728813705501 0 0 0
45 15 3 -0.398 4.20624559953315 10.769344881658128 20.35902745251067 0 0 -1
43 15 1 0.269 2.5556527449489677 12.391464561317447 18.974079809728 0 0 -1
44 15 2 0.129 3.4981492210556167 11.46522640533845 19.764891589440758 0 0 -1
481 161 1 0.269 5.664011253445068 9.080109013483671 17.851367170249798 -1 -1 0
78 26 3 -0.398 1.270888824824102 9.041571029215268 18.361059789808397 0 0 -1
77 26 2 0.129 1.1587984049332085 7.952559477025863 17.986708915671368 0 0 -1
934 312 1 0.269 2.8349916657595378 8.239316672198933 21.764363669074985 0 0 0
482 161 2 0.129 6.466629353423207 10.294890308466421 17.349659495453686 -1 -1 0
752 251 2 0.129 4.5475467067287765 14.827566923171137 16.354229858838824 0 0 0
483 161 3 -0.398 7.069635289575612 11.207553917748916 16.972727170947774 -1 -1 0
590 197 2 0.129 13.982666020318215 7.615498565794755 20.245970675826687 0 0 0
274 92 1 0.269 7.701212198474041 12.853226717055662 20.012681053155397 0 0 -1
756 252 3 -0.398 8.990991281594132 8.257994597523764 18.37591591869734 0 0 0
589 197 1 0.269 12.583385808660402 7.870946000439794 19.655749109465642 0 0 0
620 207 2 0.129 12.651345201566102 14.90787218311148 19.857838851706887 0 0 0
619 207 1 0.269 13.04837701641168 13.47375571109398 20.254418834422026 0 0 0
276 92 3 -0.398 9.58762354859989 13.696846498933205 18.279600881397073 0 0 -1
275 92 2 0.129 8.778362172220355 13.334937678898974 19.02308392133937 0 0 -1
755 252 2 0.129 9.703086938390202 8.999361991858565 17.84493271539525 0 0 0
754 252 1 0.269 10.650906568006398 9.986143139028487 17.138178927076126 0 0 0
648 216 3 -0.398 14.084983752038385 10.325168146897633 17.597296230304014 -1 0 0
497 166 2 0.129 10.226877330898951 10.018458940140475 21.14858458710611 0 0 0
498 166 3 -0.398 11.323157376070993 10.353624221321143 20.992113194041888 0 0 0
496 166 1 0.269 8.767697322631925 9.572344391291528 21.35685247415789 0 0 0
647 216 2 0.129 15.030206796985706 10.140381791645005 18.238433031783984 -1 0 0
90 30 3 -0.398 21.152554150465132 9.412172185335807 20.711617446767757 0 0 -1
646 216 1 0.269 16.288325629499855 9.89442588231999 19.091804401083174 -1 0 0
89 30 2 0.129 20.62621455936992 9.414964924191029 19.681273894619007 0 0 -1
462 154 3 -0.398 19.63184729135753 12.254678483915896 16.50768631074931 -1 0 -1
461 154 2 0.129 18.696179246947114 12.752524514183735 16.04365652634316 -1 0 -1
88 30 1 0.269 19.925641551343443 9.418682139261938 18.309857239209258 0 0 -1
891 297 3 -0.398 17.002048573102883 13.381773008070155 21.151861832372315 0 0 0
930 310 3 -0.398 22.311669250254145 9.83312028958199 16.0141293237373 -1 -1 0
379 127 1 0.269 19.696795265106662 14.541681197648169 20.30356500385953 -1 -1 0
890 297 2 0.129 16.540980236498072 13.597964408731965 22.19076811652904 0 0 0
460 154 1 0.269 17.450778392675687 13.415171780054498 15.42601964822262 -1 0 -1
1091 364 5 -0.35 22.388999278205755 12.61422147311197 18.591266309275447 0 0 0
246 82 3 -0.398 16.002006397423774 10.657554116995739 22.249468255061895 0 0 -1
387 129 3 -0.398 29.781490342026952 12.746462108871388 21.41814833500948 -1 0 -1
385 129 1 0.269 29.707505320213404 10.07915678412894 21.81034410391659 -1 0 -1
386 129 2 0.129 29.749751124289364 11.60220098142348 21.586398429420132 -1 0 -1
929 310 2 0.129 23.34413285661906 10.306874694570526 16.23373047420262 -1 -1 0
928 310 1 0.269 24.718371364658786 10.937455320052246 16.526025868944693 -1 -1 0
402 134 3 -0.398 26.310561712172067 10.161927111488884 19.295076198822034 -1 -1 0
400 134 1 0.269 24.503918038828605 9.280980006201165 21.09334754521499 -1 -1 0
401 134 2 0.129 25.53552028463837 9.784005049635756 20.066525938450006 -1 -1 0
62 21 2 0.129 28.07533708049925 11.196688003666061 15.912810199894016 -1 0 0
61 21 1 0.269 28.526303206985705 11.097072651654305 17.381927735834026 -1 0 0
219 73 3 -0.398 26.793294069399835 14.014649936640764 18.371794121800527 -1 0 0
217 73 1 0.269 26.5828941454027 13.83461705947226 21.054540668741403 -1 0 0
218 73 2 0.129 26.70303351616858 13.93741670012465 19.522679459142235 -1 0 0
1090 364 4 0.7 22.717378900695696 13.725081572865756 18.652557926225608 0 0 0
1092 364 5 -0.35 23.045758523185636 14.835941672619542 18.71384954317577 0 0 0
384 128 3 -0.398 1.2127054595324496 0.6592796918326276 26.929118310066688 0 0 -1
836 279 2 0.129 2.2849500408968995 1.5557472300094939 22.635253810136753 0 0 0
835 279 1 0.269 1.844585204354689 2.367094517951135 23.86789097860337 0 0 0
108 36 3 -0.398 1.749863033076772 5.472589361210082 23.15551696388668 0 0 -1
107 36 2 0.129 1.432105566200265 5.732765686577457 24.23717655542302 0 0 -1
106 36 1 0.269 1.0091613146965304 6.079067796400926 25.67689632289578 0 0 -1
528 176 3 -0.398 4.124725180514232 3.155111131115568 27.085895052804332 0 0 0
527 176 2 0.129 4.5001901968800935 3.623088957865422 26.096616641458525 0 0 0
526 176 1 0.269 4.9999448426911774 4.24598079295166 24.779858859719077 0 0 0
947 316 2 0.129 4.576773102364944 5.173850717471713 29.811648400861237 0 0 0
463 155 1 0.269 6.906552715057676 1.455700711331822 28.93037303643572 1 0 -1
849 283 3 -0.398 4.740365618666305 0.26616540177363385 24.252096091814536 0 0 0
775 259 1 0.269 1.3864790653916335 1.939896638792693 29.927835268926206 1 0 0
946 316 1 0.269 5.737945444532446 5.267953311844921 28.804462472883056 0 0 0
840 280 3 -0.398 4.58911979938449 7.4414176325840025 27.00547484085847 0 0 0
580 194 1 0.269 0.4035942530684444 6.8386412868991275 29.729976611154115 0 1 0
14 5 2 0.129 10.025711502067319 1.9033280872982232 22.942218350395482 0 0 -1
188 63 2 0.129 10.556374444491674 0.4332031172195943 28.988036683150895 0 1 -1
187 63 1 0.269 11.844165913129206 0.7466761918191351 28.203863382913426 0 1 -1
38 13 2 0.129 13.53925439774243 5.390264686966694 23.526732723435043 0 1 0
15 5 3 -0.398 9.040116055991458 1.8265714924031788 23.543349818390936 0 0 -1
39 13 3 -0.398 13.249688319574322 6.123095653901469 24.373939463419482 0 1 0
397 133 1 0.269 11.034188059027127 3.7252636023037873 25.764334846621598 0 0 -1
398 133 2 0.129 9.899290501457017 3.836310582608702 26.79935953327776 0 0 -1
399 133 3 -0.398 9.046643440347527 3.9197400346949225 27.57697223617463 0 0 -1
261 87 3 -0.398 12.639532740121387 5.2731579608117665 28.028263374121366 0 1 -1
260 87 2 0.129 12.859937932659907 6.407634813158343 28.08333444266461 0 1 -1
96 32 3 -0.398 13.507337410215627 2.2388006949247443 24.949495981862363 0 0 0
95 32 2 0.129 14.482771730771596 1.6898376985457308 24.656551422452008 0 0 0
111 37 3 -0.398 8.907880884232286 6.442035736385528 24.003735137933166 0 -1 -1
110 37 2 0.129 9.515176559014536 7.130781612570843 24.707631494954736 0 -1 -1
869 290 2 0.129 14.980145906960587 3.4070883304443376 28.615308147027655 0 0 0
870 290 3 -0.398 14.512392838883944 2.6312140369264863 29.33494357414486 0 0 0
189 63 3 -0.398 9.588858386560748 0.19769120338084595 29.577185065212422 0 1 -1
882 294 3 -0.398 21.20757325839491 0.00047555285751244014 26.79381251056457 0 1 0
94 32 1 0.269 15.781102632808068 0.9591522928208529 24.26663385850046 0 0 0
868 290 1 0.269 15.602738581842202 4.439799144634049 27.657452868064397 0 0 0
923 308 2 0.129 19.940671931022315 0.9192742927409444 23.056491390098305 -1 0 0
924 308 3 -0.398 19.307257226610147 0.8109111799361034 24.018620408483088 -1 0 0
828 276 3 -0.398 20.499581845648546 6.983928963167271 26.982833468133705 -1 0 0
637 213 1 0.269 17.127356242003973 7.28266906167882 24.49990137253979 0 0 0
65 22 2 0.129 18.628011987484932 3.8249315564211686 24.921141051801538 -1 0 -1
64 22 1 0.269 19.956443462946833 3.673374102499052 25.6852746482116 -1 0 -1
66 22 3 -0.398 17.629963145206084 3.9387964747249993 24.34704847319995 -1 0 -1
900 300 3 -0.398 18.14549790213974 3.7243990845684927 29.8748634167007 0 0 -1
827 276 2 0.129 20.787092729972528 6.392979872176502 27.93507590745896 -1 0 0
407 136 2 0.129 20.885914742943985 7.467119947732999 22.96212778295684 -1 0 -1
826 276 1 0.269 21.169777917404627 5.606409776994319 29.20253775409758 -1 0 0
417 139 3 -0.398 16.692866585249025 7.333695322860359 29.616236679400092 0 0 0
320 107 2 0.129 27.128688280471195 3.6452164239228586 28.836029044273012 -1 1 0
874 292 1 0.269 27.233517879500653 6.5712544462946525 22.74222913254257 -1 0 -1
71 24 2 0.129 23.656369594409977 2.457669069669488 25.994182493660656 0 0 0
706 236 1 0.269 27.274429026897504 2.3373193145178446 24.15408707291779 -1 1 0
321 107 3 -0.398 27.500847380821767 3.3944298706025102 27.769608532139078 -1 1 0
707 236 2 0.129 27.76778139620906 3.692681694770206 24.693713108143346 -1 1 0
708 236 3 -0.398 28.138436390555466 4.710963690842919 25.09913344759528 -1 1 0
349 117 1 0.269 25.32451951673258 6.314487810858328 25.939273630261187 0 0 -1
70 24 1 0.269 24.451837296088033 1.3983144973756714 26.77942069048129 0 0 0
72 24 3 -0.398 23.058735743214186 3.253560784048676 25.404234056179174 0 0 0
477 159 3 -0.398 23.180942786478095 2.2043060629492173 29.89592477881071 0 0 0
715 239 1 0.269 28.046925487572324 0.0182673606905005 27.960095898939905 -1 0 0
519 173 3 -0.398 5.717774732903457 12.334454001125408 29.712046103551682 0 0 0
838 280 1 0.269 5.538395605859228 8.860129667940404 24.91742776189282 0 0 0
582 194 3 -0.398 1.1121519443264802 9.37942556019725 29.16768640608027 0 1 0
403 135 1 0.269 2.2798706916274725 13.283493460986822 23.622360818540574 0 -1 -1
348 116 3 -0.398 1.9910429781876755 13.531022386771944 28.103784836016978 -1 0 -1
347 116 2 0.129 2.5738392598742306 12.543169736337765 27.951651226709455 -1 0 -1
1025 342 5 -0.35 6.481895252812513 11.902822217205857 23.06440302839575 0 0 0
1024 342 4 0.7 6.381782932961337 12.361901924419138 24.12497992133619 0 0 0
346 116 1 0.269 3.349557733337753 11.228309683037303 27.749157053560282 -1 0 -1
1026 342 5 -0.35 6.281670613110166 12.820981631632417 25.18555681427663 0 0 0
405 135 3 -0.398 2.736288202699301 10.753352191137665 24.437147422621216 0 -1 -1
404 135 2 0.129 2.540487290459737 11.838770600190493 24.087607896881025 0 -1 -1
839 280 2 0.129 4.996354544690854 8.05003825731791 26.10971270872526 0 0 0
581 194 2 0.129 0.8081841101457061 8.289441353965907 29.408906193722256 0 1 0
598 200 1 0.269 0.21295913864647298 10.452549502329036 26.19844551880171 1 0 0
93 31 3 -0.398 9.659005339704846 14.76255535552001 29.535057436943127 -1 0 -1
259 87 1 0.269 13.15330353033434 7.917655861225523 28.156635605634875 0 1 -1
438 146 3 -0.398 14.62350992875993 14.88030277650018 26.78067258719092 0 -1 -1
603 201 3 -0.398 7.79097118420382 10.439291417788523 25.889286129502032 0 -1 0
109 37 1 0.269 10.323504423461088 8.04752201821076 25.644537622710327 0 -1 -1
244 82 1 0.269 13.665271069667428 9.714456153458718 23.21073993320167 0 0 -1
245 82 2 0.129 14.999558205279138 10.252969636531395 22.661849171490413 0 0 -1
602 201 2 0.129 8.115589256075936 11.106798020132262 26.77681474495108 0 -1 0
445 149 1 0.269 11.720606702835774 12.828431207763277 24.588711223404943 0 0 -1
601 201 1 0.269 8.547665168507272 11.99526834650162 27.958140646240214 0 -1 0
447 149 3 -0.398 9.476838374097447 12.128811429698125 23.265894209192023 0 0 -1
446 149 2 0.129 10.439404171780149 12.428944942201419 23.83337633208574 0 0 -1
855 285 3 -0.398 13.106832572405008 11.027379845390582 26.901035961249693 -1 0 0
854 285 2 0.129 14.191269986723189 11.380101752330903 27.09656537282547 -1 0 0
92 31 2 0.129 10.674936142994511 14.209229739923993 29.55414581172414 -1 0 -1
91 31 1 0.269 12.027169018591822 13.472737563590485 29.579552982997058 -1 0 -1
406 136 1 0.269 21.647945458396794 8.137355367589715 24.120442796534043 -1 0 -1
853 285 1 0.269 15.634687115547742 11.849584670816725 27.35682059653049 -1 0 0
796 266 1 0.269 18.890025565083427 10.560494612594562 23.025566744094544 -1 0 0
416 139 2 0.129 17.546454543345877 8.076633315088209 29.375239298717382 0 0 0
819 273 3 -0.398 22.404233535565226 12.172580724974994 25.83075489515043 0 0 0
415 139 1 0.269 18.68260446164247 9.065504972850432 29.054464911291813 0 0 0
639 213 3 -0.398 16.31278329140657 8.878450839576821 26.515778458446576 0 0 0
969 323 5 -0.35 20.105898956049675 13.520817155257358 23.620413771035366 -1 -1 0
638 213 2 0.129 16.662231160832302 8.193868148798925 25.650976905463946 0 0 0
967 323 4 0.7 19.65188859690071 14.199746057181263 24.44414318043986 -1 -1 0
968 323 5 -0.35 19.197878237751745 14.878674959105174 25.26787258984435 -1 -1 0
889 297 1 0.269 15.927285129867633 13.885721329232556 23.57358201246798 0 0 0
798 266 3 -0.398 18.817072821414083 11.016200811436823 25.682786862474913 -1 0 0
842 281 2 0.129 18.08482133718713 13.034025641637898 29.31491628347879 -1 -1 0
841 281 1 0.269 19.298211308800507 13.265879696915194 28.395390060993552 -1 -1 0
797 266 2 0.129 18.848369196803567 10.820705048715093 24.54285223994392 -1 0 0
818 273 2 0.129 22.396677670053627 11.146613033732473 26.365527936190002 0 0 0
817 273 1 0.269 22.38662059754899 9.781020773997401 27.077326106631606 0 0 0
48 16 3 -0.398 21.444964319289515 11.681312397968972 29.88711745626563 -1 1 -1
231 77 3 -0.398 27.43387799432975 13.831645214519178 28.067543666259073 -1 0 -1
790 264 1 0.269 23.599983103351466 14.116379201579681 28.35079354726435 -1 0 -1
363 121 3 -0.398 23.719583952965507 13.817107456128673 22.685935237544268 -1 0 -1
362 121 2 0.129 23.135288481936403 14.81567754298822 22.696210653059513 -1 0 -1
252 84 3 -0.398 27.685891064457635 11.10080301015949 23.856083263327772 0 -1 0
705 235 3 -0.398 24.87022676488764 7.5568050762525045 29.440286749056188 0 0 0
350 117 2 0.129 25.09458609569943 7.760758149619128 25.46279411431831 0 0 -1
229 77 1 0.269 29.23191762998418 12.37172842281776 29.44939222160831 -1 0 -1
250 84 1 0.269 25.919297922696497 12.386754429531427 25.43699648627669 0 -1 0
704 235 2 0.129 25.681186004060656 8.374104357343084 29.326199074311834 0 0 0
599 200 2 0.129 29.297352268349695 9.246421411640169 26.4786580950994 0 0 0
351 117 3 -0.398 24.921837415092053 8.847339176856952 25.104815672794988 0 0 -1
600 200 3 -0.398 28.60945801579555 8.340258943505747 26.689181439759423 0 0 0
703 235 1 0.269 26.760595881611607 9.46195301151724 29.174345125213907 0 0 0
230 77 2 0.129 28.20522833116778 13.205347947927208 28.660350035758167 -1 0 -1
251 84 2 0.129 26.92803112192236 11.652469970564878 24.53428741570148 0 -1 0
395 132 2 0.129 3.8963833551052556 17.809659880290138 3.3000860760445794 -1 0 -1
396 132 3 -0.398 4.822770716327928 17.146206657034295 3.0993741493473674 -1 0 -1
394 132 1 0.269 2.6633353548607275 18.692735043482877 3.5672393751921185 -1 0 -1
459 153 3 -0.398 0.42718957510186106 20.314420837594337 1.672797014003752 0 0 0
458 153 2 0.129 0.8003433127729254 21.4012789756572 1.8074991884045493 0 0 0
824 275 2 0.129 6.646617278319678 20.096007507295692 2.5827212787441836 0 -1 1
825 275 3 -0.398 5.817105382824375 20.634671160862744 3.183054922276886 0 -1 1
919 307 1 0.269 6.945797515335648 21.80985555348963 6.656426759796911 0 0 0
851 284 2 0.129 2.503950569327092 19.801887254395062 7.086298484418729 0 0 0
852 284 3 -0.398 3.229147428968703 18.98977361490798 7.477718912251299 0 0 0
850 284 1 0.269 1.5386928650504392 20.882833671689877 6.565306730864571 0 0 0
152 51 2 0.129 6.353956553330277 15.706289772617156 6.368921169288924 0 -1 0
153 51 3 -0.398 7.374520684957508 15.173038474666772 6.481796793187068 0 -1 0
558 186 3 -0.398 2.0445643370420163 15.52263860693682 5.291313860324943 -1 -1 1
151 51 1 0.269 4.9955565855636905 16.416062459603836 6.218680494437462 0 -1 0
235 79 1 0.269 1.0136745574397026 16.414834848178398 0.40856251745698957 0 0 0
375 125 3 -0.398 4.347132855047349 17.260844881488385 0.1931549794696868 0 0 1
823 275 1 0.269 7.750721270595191 19.379030820611806 1.7836600764621031 0 -1 1
733 245 1 0.269 12.127486069583778 18.563694346222466 3.4386264149044066 0 0 0
735 245 3 -0.398 11.350504616243809 16.082262355597884 4.154590168919474 0 0 0
734 245 2 0.129 11.683825914543528 17.1467847186504 3.8474451695144185 0 0 0
813 271 3 -0.398 12.6208614365285 17.756727172641256 7.425725305267663 0 0 0
222 74 3 -0.398 9.584322644785342 20.57837133797794 4.005800246846727 0 0 0
221 74 2 0.129 10.293759618891475 21.317878190397217 4.542901536172483 0 0 0
391 131 1 0.269 9.26864810043982 18.06851085631471 6.780812979739925 -1 -1 0
392 131 2 0.129 9.908148740464302 19.30545485457308 7.43854276968595 -1 -1 0
265 89 1 0.269 12.688410210668058 21.70648983406297 1.116057201856379 0 -1 0
594 198 3 -0.398 11.128000813787814 19.08470335408198 0.49191760916652183 1 -1 0
220 74 1 0.269 11.238040466016315 22.30218290321112 5.2577986714893905 0 0 0
904 302 1 0.269 17.550124917638065 22.20225648093452 0.38399590918977733 -1 -1 0
820 274 1 0.269 15.984010219997517 15.485149518302382 1.7001117799690562 0 0 1
954 318 3 -0.398 16.637981593840646 16.15359619173978 5.871252750443357 -1 0 0
551 184 2 0.129 21.487425968450722 19.71810301447146 0.30987324806948274 0 0 1
535 179 1 0.269 16.720015485530535 19.160593837496695 5.332572309533726 0 -1 1
536 179 2 0.129 16.861236965436124 20.009476562472575 4.055444824570813 0 -1 1
720 240 3 -0.398 18.817821545841795 17.543056693032103 3.1584116556940143 -1 0 0
719 240 2 0.129 19.842573816294067 17.975152180040723 3.477512383224229 -1 0 0
537 179 3 -0.398 16.96733647988468 20.647241051301854 3.0959406037253006 0 -1 1
718 240 1 0.269 21.206548316291038 18.550283597493856 3.9022445529705796 -1 0 0
953 318 2 0.129 17.315039075163373 15.300090473360237 5.481675857290902 -1 0 0
821 274 2 0.129 16.36267345451315 16.811909561907438 1.0160635788036236 0 0 1
124 42 1 0.269 20.782457332350855 15.824367501167844 0.8078066255818946 0 0 1
633 211 3 -0.398 20.629587360226573 19.991605076357956 6.875489635357867 0 -1 1
822 274 3 -0.398 16.647162650834307 17.808702659602922 0.5021390536423231 0 0 1
327 109 3 -0.398 21.79891722957139 22.237829190972825 4.2140351947434205 -1 0 0
550 184 1 0.269 20.014060095129143 19.2965673140865 0.46186224974987444 0 0 1
236 79 2 0.129 29.68738912200556 16.436386536340077 1.190932294795971 -1 0 0
552 184 3 -0.398 22.594363835615052 20.034802238721714 0.19568410849532025 0 0 1
330 110 3 -0.398 28.805795372518546 20.68278061533428 5.458885041044236 -1 -1 0
237 79 3 -0.398 28.690952596812497 16.452578291666743 1.7787256924460981 -1 0 0
329 110 2 0.129 28.727245020031408 19.58433216810951 5.104075442929839 -1 -1 0
328 110 1 0.269 28.622692260454752 18.122265954863053 4.631813747946115 -1 -1 0
323 108 2 0.129 25.291956228097185 20.092213928623003 3.9256229614750118 -1 -1 0
1085 362 5 -0.35 25.985566861039832 15.794899123698075 5.653628149853425 0 0 0
1084 362 4 0.7 25.185015239370834 16.423576507466034 5.097317222240106 0 0 0
324 108 3 -0.398 25.73994380365031 19.39428620042788 3.118868340560589 -1 -1 0
1086 362 5 -0.35 24.384463617701837 17.052253891233992 4.541006294626786 0 0 0
322 108 1 0.269 24.695671987516526 21.02117564117312 4.999436372199477 -1 -1 0
40 14 1 0.269 26.125331301134455 17.71809056097304 0.6348542304846723 0 0 0
907 303 1 0.269 27.273082791191687 21.76810792326336 1.1831851635675985 0 -1 1
457 153 1 0.269 1.2970215807188508 22.8479181568299 1.9867916245127828 0 0 0
750 250 3 -0.398 3.041668956267286 23.15932449097219 5.003140599989411 0 -1 1
160 54 1 0.269 7.39569501885815 23.43916744045563 0.259567985754162 0 -1 0
749 250 2 0.129 4.0364768247288785 23.427759798098055 4.476881357091924 0 -1 1
748 250 1 0.269 5.360594471600833 23.785054848205093 3.7764152948083205 0 -1 1
365 122 2 0.129 1.6571000365220485 26.233389207074893 4.394748305628663 0 -1 0
364 122 1 0.269 2.31552264388665 26.910674404446237 5.611039566607398 0 -1 0
1079 360 5 -0.35 3.077141816247732 27.41803279283406 1.7118067749146766 0 -1 1
576 192 3 -0.398 3.760956249680569 23.55611547244023 0.09755627937141265 0 -1 1
1078 360 4 0.7 3.1797949609907694 28.528307231443947 1.3918802163988513 0 -1 1
737 246 2 0.129 5.07202212301888 29.704044466988464 4.0593897892284465 0 0 0
738 246 3 -0.398 5.088612664644796 28.54974709259818 4.136664140758395 0 0 0
366 122 3 -0.398 1.1624279867033183 25.724545717880964 3.4809502608543785 0 -1 0
1080 360 5 -0.35 3.2824481057338066 29.63858167005383 1.071953657883026 0 -1 1
901 301 1 0.269 7.142253165981194 26.775436678607534 6.158113936724231 0 -1 1
472 158 1 0.269 7.247526270672262 28.164203489555618 1.5339692223336054 0 0 0
473 158 2 0.129 6.741328042423888 28.17548165339904 0.07958407501616094 0 0 0
809 270 2 0.129 13.984186284409027 29.545851097672397 2.9614355544623785 0 -2 1
903 301 3 -0.398 8.92278858026053 25.1158657787558 4.996508553276161 0 -1 1
161 54 2 0.129 8.84106326874072 22.924958394610417 0.12503293678414107 0 -1 0
768 256 3 -0.398 11.829032946841165 26.018126635017463 0.4384108996919097 1 0 0
902 301 2 0.129 8.158947470019077 25.8278136953774 5.494831663639312 0 -1 1
682 228 1 0.269 11.387246829189829 27.78974619770613 5.660786651889414 -1 0 1
683 228 2 0.129 12.274906890365273 26.539988416895415 5.808316666111118 -1 0 1
684 228 3 -0.398 12.941804741521114 25.60104701923437 5.919155774198456 -1 0 1
1062 354 5 -0.35 9.200219417782911 25.518450051039313 2.0493488623828755 0 -1 0
1060 354 4 0.7 10.181966756706526 25.066396636678846 2.4705612471506804 0 -1 0
808 270 1 0.269 13.644450189273613 29.999765192647892 1.5296040769321981 0 -2 1
1061 354 5 -0.35 11.16371409563014 24.61434322231838 2.8917736319184852 0 -1 0
810 270 3 -0.398 14.239429571468552 29.204826027616136 4.037168684009408 0 -2 1
409 137 1 0.269 14.666476720889946 25.6399867374352 3.3765179398451917 -1 -1 0
615 205 3 -0.398 8.588990531048072 29.69561858561079 5.610765592633643 0 -1 1
162 54 3 -0.398 9.926966557775874 22.538633806270866 0.023956929213806433 0 -1 0
693 231 3 -0.398 16.942846801205643 28.70343785909495 0.14059513381530508 0 -1 1
325 109 1 0.269 19.324589756476467 23.238661322893314 3.8269336581993834 -1 0 0
326 109 2 0.129 20.73744267029411 22.667181351385135 4.04797050146146 -1 0 0
411 137 3 -0.398 17.086063684600127 25.00837950323394 2.366329726320225 -1 -1 0
410 137 2 0.129 16.048072539990308 25.279335962251686 2.799695600642948 -1 -1 0
256 86 1 0.269 18.02667025974964 28.162890894068777 3.5937565873319954 -2 -1 0
257 86 2 0.129 18.11600364382796 27.22696015167753 4.813450480051383 -2 -1 0
258 86 3 -0.398 18.183119699268616 26.52379660041346 5.729804917633412 -2 -1 0
916 306 1 0.269 21.12715877189848 28.476906564236085 6.22646658610391 0 -1 0
4 2 1 0.269 15.663420161669515 24.85076609735097 7.327368220943896 0 0 0
917 306 2 0.129 22.06955475726129 29.459112377705004 6.94671761648233 0 -1 0
757 253 1 0.269 23.348655735254816 22.970086126899858 0.6028219350159423 0 0 1
1073 358 5 -0.35 23.35073978286351 25.702642052835383 6.860315705848269 0 -1 0
171 57 3 -0.398 22.567341694310837 27.328223377114686 2.727472331997435 0 -1 0
1072 358 4 0.7 23.340122224588733 24.645928070681023 7.338690901041245 0 -1 0
170 57 2 0.129 23.581646131991302 26.91039481333388 3.0952423674701324 0 -1 0
596 199 2 0.129 29.80947126756168 27.272467554358144 0.3842089705164341 -1 -1 1
604 202 1 0.269 28.346852169901542 23.59312959229944 4.803633897110088 -1 -1 1
595 199 1 0.269 28.772351195193597 27.061552021942312 1.5029120560923057 -1 -1 1
605 202 2 0.129 27.033373282023764 23.64585534624994 5.605876507529246 -1 -1 1
909 303 3 -0.398 26.60774910140637 24.24316535500722 2.0229653674317456 0 -1 1
423 141 3 -0.398 26.911183810069353 28.147807613148053 4.904237737226563 0 0 0
422 141 2 0.129 26.97638768719624 27.603346369213536 5.92304066628642 0 0 0
908 303 2 0.129 26.89317404730241 23.18137764698807 1.6627037078578402 0 -1 1
606 202 3 -0.398 26.04655829937792 23.685468136717947 6.208600338863636 -1 -1 1
169 57 1 0.269 24.931714268575494 26.35425307761872 3.584754774235865 0 -1 0
421 141 1 0.269 27.063175907399696 26.878652924391442 7.279096423202738 0 0 0
177 59 3 -0.398 29.60869545963404 24.23078667919888 7.479504178669397 0 -2 0
717 239 3 -0.398 27.263291371466668 29.699137000199155 0.5209321656872856 -1 -1 1
562 188 1 0.269 2.0414808889273597 15.584824670706936 9.473725048563233 0 0 0
785 262 2 0.129 7.49369788231384 15.368824399797266 14.306663554371505 0 -1 0
920 307 2 0.129 6.37989102916989 21.078522075843 7.887889789444098 0 0 0
559 187 1 0.269 3.2095607767965886 16.35510870553214 13.183167874803244 -1 0 0
560 187 2 0.129 4.537228607158928 16.350568777282795 12.402861831463248 -1 0 0
449 150 2 0.129 1.744284291312094 19.556766701382298 10.832137079006026 -1 -1 0
448 150 1 0.269 3.1819761580246846 20.067064350952514 10.621807800894635 -1 -1 0
561 187 3 -0.398 5.534703723866221 16.347157935085082 11.81661891448638 -1 0 0
921 307 3 -0.398 5.954726221057042 20.529072183870824 8.813086364315396 0 0 0
32 11 2 0.129 5.304666195839102 20.608187626814615 13.75679537703539 0 -1 0
33 11 3 -0.398 4.693138960779793 20.93668619294627 12.831175512927848 0 -1 0
450 150 3 -0.398 0.6641482589832204 19.17338073998441 10.990157192496207 -1 -1 0
786 262 3 -0.398 7.479319010312993 16.525629559525488 14.322286309136203 0 -1 0
573 191 3 -0.398 0.2847874255038729 16.502468170747544 13.499774345468795 -1 0 0
31 11 1 0.269 6.118626387707159 20.170946665844223 14.988821816729091 0 -1 0
812 271 2 0.129 13.449551472287848 17.021511503461614 7.759461345314069 0 0 0
289 97 1 0.269 7.796932287603639 18.469206985657635 11.111479778150096 1 -1 -1
811 271 1 0.269 14.552561545813692 16.042918477932965 8.20367353344843 0 0 0
393 131 3 -0.398 10.388604740794385 20.234769274043824 7.932694306677863 -1 -1 0
454 152 1 0.269 13.862328487053759 20.663085528903892 8.656966074293663 -1 -1 0
455 152 2 0.129 13.570967360550988 22.031741304538247 9.29999800334892 -1 -1 0
540 180 3 -0.398 9.817148218213246 20.282713661343134 14.808249235078728 0 0 0
539 180 2 0.129 9.993375498846518 19.183489404845137 14.493131829200818 0 0 0
856 286 1 0.269 11.414540813189252 15.058132742383329 11.585653653259717 -1 0 0
291 97 3 -0.398 8.9966159326366 16.598560011402764 9.583327937019336 1 -1 -1
290 97 2 0.129 8.481957431597243 17.40105854652063 10.238897710911914 1 -1 -1
911 304 2 0.129 11.629160778181395 19.57907107065507 11.349089140810145 -1 -1 0
910 304 1 0.269 10.831596981522516 20.894444785279703 11.276398143196786 -1 -1 0
34 12 1 0.269 13.748062245153541 21.171154592902454 13.790511022240365 0 0 0
912 304 3 -0.398 12.228369422814072 18.590832507135122 11.403701792913163 -1 -1 0
871 291 1 0.269 14.69879203971436 16.94715882970279 12.394497752417484 0 0 1
538 180 1 0.269 10.227939035730907 17.720390567328355 14.073701574186142 0 0 0
35 12 2 0.129 12.715017461214039 22.27605355650285 14.079676640200327 0 0 0
873 291 3 -0.398 15.475656938730008 18.48658381168658 10.32074254663297 0 0 1
872 291 2 0.129 15.142385641673611 17.826177914706513 11.210373534060736 0 0 1
21 7 3 -0.398 19.023226844780854 15.403938424482325 13.280893359055376 -1 -1 0
20 7 2 0.129 20.13943956377906 15.141111723805189 13.434647355289957 -1 -1 0
522 174 3 -0.398 20.733160428173093 16.318524284370746 10.001761926301466 -1 -1 0
521 174 2 0.129 19.901138673968493 17.07795422371417 9.737839650321341 -1 -1 0
520 174 1 0.269 18.793693988164627 18.088777133471183 9.38655157339015 -1 -1 0
579 193 3 -0.398 20.875339699856564 19.916583597558255 11.282978717494478 -1 0 0
578 193 2 0.129 21.343478112553377 19.384252798954694 12.197374336149949 -1 0 0
358 120 1 0.269 17.185164974650434 21.68962406691607 12.025628184003383 0 0 0
632 211 2 0.129 20.629886724666974 20.84908120463326 7.652267338319703 0 -1 1
360 120 3 -0.398 16.750135147764695 22.408261249705593 9.462794079104214 0 0 0
359 120 2 0.129 16.936760846580714 22.09996936224268 10.562237556808451 0 0 0
577 193 1 0.269 21.96658369211526 18.675705322853155 13.414460985008567 -1 0 0
631 211 1 0.269 20.630285187275632 21.99040638833591 8.686180616246427 0 -1 1
807 269 3 -0.398 25.540029844567353 17.019426437305427 8.56357954228754 -1 0 0
877 293 1 0.269 28.045971583154913 20.012412056427635 8.614273130145055 -1 -1 1
572 191 2 0.129 29.70331095806373 17.419222799818378 13.899893162684956 -2 0 0
806 269 2 0.129 24.616806673024616 17.650692355504624 8.267249800198053 -1 0 0
859 287 1 0.269 25.762841101902513 20.46777695876994 13.311654661122835 -2 0 0
860 287 2 0.129 24.680844778097775 21.56351652684302 13.327106335201023 -2 0 0
878 293 2 0.129 26.59534353202332 20.506948588391467 8.764977728029548 -1 -1 1
730 244 1 0.269 28.350047267643628 16.641755574277113 10.846482882645102 -2 0 0
805 269 1 0.269 23.38797029949323 18.490925297619373 7.8728264615482635 -1 0 0
879 293 3 -0.398 25.505488561140695 20.878493242600655 8.878201896699906 -1 -1 1
731 244 2 0.129 27.115209497214785 17.072084640384407 11.659866295055627 -2 0 0
861 287 3 -0.398 23.867942345213308 22.386744241297933 13.338715157868853 -2 0 0
732 244 3 -0.398 26.187477483977016 17.395390308881897 12.270960196457565 -2 0 0
571 191 1 0.269 28.92934919500598 18.63944935882364 14.432462720604473 -2 0 0
378 126 3 -0.398 0.6058531902907187 28.18266016999142 7.9586733795621685 0 -1 0
377 126 2 0.129 0.5967218008546442 29.29899136745268 7.654748593964736 0 -1 0
142 48 1 0.269 6.11528055064775 23.446683347932495 10.552776829662957 0 0 -1
471 157 3 -0.398 5.109105690406605 24.481476371482877 7.768848631585653 0 0 0
470 157 2 0.129 3.974438120748228 24.38353130821757 7.972773301370968 0 0 0
950 317 2 0.129 6.258739328051666 26.688779409612646 14.159057118386432 0 -1 0
469 157 1 0.269 2.4641632224993937 24.253163635418456 8.244202853202754 0 0 0
479 160 2 0.129 4.0397588361837355 28.21631141756322 9.254388465210019 0 -1 0
144 48 3 -0.398 4.868636863055094 25.701381113651458 11.350289526392517 0 0 -1
143 48 2 0.129 5.40344099599714 24.734126640185814 11.008160423642757 0 0 -1
783 261 3 -0.398 1.6419711797444094 24.85479754292581 11.670470118686971 -1 -1 0
782 261 2 0.129 2.187275617533455 24.2778468667657 12.512147008832585 -1 -1 0
781 261 1 0.269 2.913091377425532 23.509909060986477 13.63244295595812 -1 -1 0
478 160 1 0.269 2.856100435064123 27.957694659157315 10.205004140302735 0 -1 0
480 160 3 -0.398 4.929039855726201 28.410609852287653 8.540192143078674 0 -1 0
370 124 1 0.269 7.488297150037431 27.82343477133486 9.989517743971241 0 -1 0
951 317 3 -0.398 7.200835377453666 27.061233046774817 13.600145388445545 0 -1 0
949 317 1 0.269 5.004782615796623 26.19303299541234 14.902984572240346 0 -1 0
270 90 3 -0.398 10.318527385010576 29.484315049176125 11.314111789510081 -1 -1 -1
269 90 2 0.129 9.885644749742752 29.515148646229957 12.38663727329906 -1 -1 -1
268 90 1 0.269 9.309465615505545 29.55618904334569 13.814199282836682 -1 -1 -1
456 152 3 -0.398 13.352068124600525 23.060010611297304 9.783107056541727 -1 -1 0
547 183 1 0.269 10.93920775005811 24.68267212317646 8.752171366947337 0 -1 0
36 12 3 -0.398 11.93889225665689 23.106162712922103 14.296926393433885 0 0 0
1028 343 5 -0.35 12.13363235994677 27.406326143115546 10.266683938643602 -1 -1 0
1027 343 4 0.7 12.36916518146234 28.12172150477322 9.384451675287185 -1 -1 0
549 183 3 -0.398 9.76747615326872 23.88830984885412 11.0477851502787 0 -1 0
548 183 2 0.129 10.270143360345216 24.229087435576755 10.062977902479522 0 -1 0
82 28 1 0.269 8.655774771433247 23.082069460924036 14.034412186165317 -1 0 0
1029 343 5 -0.35 12.60469800297791 28.837116866430904 8.502219411930763 -1 -1 0
712 238 1 0.269 12.002267663655804 25.94233799943156 13.058788934101852 -1 0 0
372 124 3 -0.398 9.602396232316991 27.519405866181877 8.342714630317436 0 -1 0
713 238 2 0.129 12.773221703531469 26.90810988463655 13.977763653093895 -1 0 0
371 124 2 0.129 8.695457916337219 27.649832801021333 9.049185228203031 0 -1 0
714 238 3 -0.398 13.352438472451047 27.633693047741858 14.668188165998954 -1 0 0
352 118 1 0.269 14.99821851746528 28.8351180667799 11.61626238715239 0 0 -1
546 182 3 -0.398 22.011266032776845 28.51231814917529 14.199288430785387 0 0 0
545 182 2 0.129 20.952787175530634 28.06727250000795 14.341435815285447 0 0 0
544 182 1 0.269 19.543921626559882 27.474904047356528 14.530638038388377 0 0 0
5 2 2 0.129 15.479366358648978 26.193152505204342 8.059299180532088 0 0 0
6 2 3 -0.398 15.34108697547056 27.201685670065615 8.609197959911008 0 0 0
844 282 1 0.269 20.01909368181282 29.763932780558083 11.096466157483032 0 -1 0
354 118 3 -0.398 16.971284994227734 29.482531574647307 13.337213702009096 0 0 -1
453 151 3 -0.398 15.8448774412218 24.40636269237268 13.71688574001859 0 0 1
845 282 2 0.129 18.85087507642552 29.020023540565784 10.423068553774515 0 -1 0
452 151 2 0.129 16.137963635082922 24.845497044174696 12.687366189919944 0 0 1
353 118 2 0.129 16.124848986213582 29.20479430041572 12.598933883214434 0 0 -1
846 282 3 -0.398 17.973193955365062 28.46112549467547 9.91714580865065 0 -1 0
74 25 2 0.129 19.661340529445663 23.813685232224376 13.284988640411953 -1 -1 0
27 9 3 -0.398 21.605016361918455 26.67868014913474 9.098296582631061 -1 -1 0
75 25 3 -0.398 19.59899701484887 24.244207275914363 12.212881809874187 -1 -1 0
451 151 1 0.269 16.52806971852814 25.429997391430618 11.3170463047411 0 0 1
25 9 1 0.269 19.309960301629165 25.28093653769011 8.868428192464402 -1 -1 0
26 9 2 0.129 20.620448374616004 26.0790548771876 8.999684151254408 -1 -1 0
73 25 1 0.269 19.744321525538197 23.240648112706157 14.711993410531361 -1 -1 0
412 138 1 0.269 29.216372904402206 25.7533602614632 13.967753259489522 0 -1 0
1063 355 4 0.7 24.131874514205276 28.116745944564055 9.683187640743485 0 -1 1
1064 355 5 -0.35 23.63482952852728 28.412557209282745 10.688693472590334 0 -1 1
1074 358 5 -0.35 23.329504666313955 23.589214088526663 7.817066096234221 0 -1 0
209 70 2 0.129 29.293265274727798 28.80018826752944 11.937230290575318 -1 0 0
466 156 1 0.269 24.575974613441396 23.609087332074214 10.460303382994816 -1 -1 0
175 59 1 0.269 28.79559913801241 24.019660155857135 10.042336393798868 0 -2 0
208 70 1 0.269 28.879721964630512 28.3580776149454 10.521207656030162 -1 0 0
1065 355 5 -0.35 24.62891949988327 27.820934679845365 8.677681808896637 0 -1 1
414 138 3 -0.398 27.54002371432089 23.720032281427972 13.393959116505487 0 -1 0
634 212 1 0.269 23.469178830003685 25.32364860469323 13.719810044355484 -1 0 0
210 70 3 -0.398 29.603959826534656 29.132345426646147 13.001086256918658 -1 0 0
176 59 2 0.129 29.259881056921312 24.14021441835112 8.578946845671544 0 -2 0
467 156 2 0.129 25.353444980784488 24.937934534289575 10.424179414940722 -1 -1 0
468 156 3 -0.398 25.937557458067577 25.93629571153839 10.397039524655922 -1 -1 0
413 138 2 0.129 28.25916943657676 24.59232018387542 13.640114038060002 0 -1 0
334 112 1 0.269 25.522240996337416 28.58602555842063 14.123272423670123 -1 0 0
1082 361 5 -0.35 5.063111640377502 21.17456195866243 21.60656152774632 1 0 0
1081 361 4 0.7 3.9119928130445007 21.18920894611708 21.464045173884408 1 0 0
1083 361 5 -0.35 2.7608739857114992 21.20385593357173 21.321528820022497 1 0 0
240 80 3 -0.398 2.4623834047003914 16.363963840608186 18.983597424550794 0 -1 0
308 103 2 0.129 5.3631725705126465 16.523319010074548 20.88925210547865 0 0 -1
751 251 1 0.269 4.798760247705416 16.319247837155363 16.6429854781535 0 0 0
307 103 1 0.269 4.2810520960240845 17.58912136637875 21.143575946258117 0 0 -1
239 80 2 0.129 1.439727656763734 16.100531749509866 19.45627887605007 0 -1 0
726 242 3 -0.398 0.5409822457079313 18.75783374040831 21.518741707786635 0 0 0
309 103 3 -0.398 6.1761682776446385 15.722583083942107 20.69817893419174 0 0 -1
484 162 1 0.269 0.02147128979331825 19.94578395184085 18.851927093818084 0 -1 0
238 80 1 0.269 0.07854368803214129 15.74989612263743 20.085431369834758 0 -1 0
741 247 3 -0.398 8.764292024941076 18.545010115164608 22.152697583420085 0 0 0
739 247 1 0.269 8.610357242598607 21.060134065669025 21.19131077449036 0 0 0
740 247 2 0.129 8.698254745308068 19.62398616660458 21.740267276437628 0 0 0
702 234 3 -0.398 8.145357094262076 19.72548361679636 17.805762119840548 -1 0 0
701 234 2 0.129 8.409042772734406 18.611479496487444 17.97343347369631 -1 0 0
700 234 1 0.269 8.760015931634484 17.12870823868646 18.196608828007353 -1 0 0
172 58 1 0.269 12.49053735027741 18.84771472368754 21.301619013655454 -1 0 -1
173 58 2 0.129 13.669766031885215 19.829724625165866 21.430755646223457 -1 0 -1
174 58 3 -0.398 14.555719008911343 20.567507388809 21.527775830561882 -1 0 -1
670 224 1 0.269 13.406495247028737 17.59307301660163 16.887784695759844 -1 -1 0
671 224 2 0.129 14.44718972973079 17.983137193944454 15.821761745148772 -1 -1 0
674 225 2 0.129 11.956481557299668 21.15831191178215 17.359572431589097 0 0 0
675 225 3 -0.398 12.972848617802644 20.639150447872158 17.169524088486803 0 0 0
673 225 1 0.269 10.603668010908505 21.849330627790266 17.61253219682465 0 0 0
621 207 3 -0.398 12.353055714698357 15.985322026049303 19.559888825731942 0 0 0
672 224 3 -0.398 15.229062143033563 18.27619190380527 15.020860086800065 -1 -1 0
205 69 1 0.269 15.53882928194478 16.425702518431383 20.063385914242154 0 -1 0
570 190 3 -0.398 17.176376435716467 19.122273841368216 18.98883355715292 -1 0 0
206 69 2 0.129 15.732415486124149 15.737620468661284 18.69932305852953 0 -1 0
568 190 1 0.269 16.01370875285526 21.401010388305792 18.134800414426792 -1 0 0
569 190 2 0.129 16.67759760402555 20.099840836105617 18.622457455508826 -1 0 0
380 127 2 0.129 19.39516162179367 15.853537711308013 21.05166234564777 -1 -1 0
113 38 2 0.129 21.723026202997797 20.520128892937425 18.583121670940553 -1 0 -1
112 38 1 0.269 20.37832962445767 20.367879788351026 19.318112365993894 -1 0 -1
207 69 3 -0.398 15.877856549913448 15.220665318282055 17.674504406542844 0 -1 0
381 127 3 -0.398 19.168544657304626 16.839133806310894 21.613706906978287 -1 -1 0
103 35 1 0.269 18.696950353180483 17.599160057098636 16.60974960960786 0 -1 0
104 35 2 0.129 19.249059807592293 18.990514466942226 16.24793742551646 0 -1 0
105 35 3 -0.398 19.66385892366662 20.035837228103937 15.976108401494546 0 -1 0
114 38 3 -0.398 22.7332949960958 20.634513447487077 18.03092411628035 -1 0 -1
957 319 3 -0.398 23.276450014203313 16.42573788213566 15.463505111475095 -1 0 0
779 260 2 0.129 26.690481050498015 21.63623271298781 16.93316636705898 0 0 0
486 162 3 -0.398 28.676522832570985 18.035563348119783 17.504344112130916 -1 -1 0
485 162 2 0.129 29.253499237838408 18.855038779527 18.082450715694897 -1 -1 0
956 319 2 0.129 24.292619456829996 16.50963871753369 16.010322552391834 -1 0 0
955 319 1 0.269 25.64516996819136 16.62131312247144 16.738152162600816 -1 0 0
145 49 1 0.269 25.415162395394397 19.46743656475971 19.526289714794572 0 -1 0
146 49 2 0.129 25.868813381962454 18.53127513521912 20.661808345301438 0 -1 0
780 260 3 -0.398 26.695613458113982 20.70362787017277 16.248424908148515 0 0 0
147 49 3 -0.398 26.20964077901391 17.827938268999336 21.51492201770172 0 -1 0
183 61 3 -0.398 27.658002774877687 21.895607294801692 20.807088327684667 -1 0 0
182 61 2 0.129 27.692659538828703 21.361722369751263 21.83296102715403 -1 0 0
295 99 1 0.269 22.97840597837134 21.41094382871571 22.170740923989708 -1 -1 -1
300 100 3 -0.398 0.2495333675462289 22.527674796847556 16.375338061541306 0 -1 0
299 100 2 0.129 0.8143409320491592 23.40263327943247 16.879410545251805 0 -1 0
1044 348 5 -0.35 0.16063955765838234 29.3459991100615 17.999844299253482 1 -1 0
489 163 3 -0.398 4.559572311798468 24.406341944650748 20.605342475768985 -1 0 0
298 100 1 0.269 1.5661159098663688 24.56722797535362 17.5503453982459 0 -1 0
10 4 1 0.269 3.33146826355011 27.578614639748494 20.946033513661177 0 -1 -1
11 4 2 0.129 3.3333383817234172 27.540495614553585 19.406506494549728 0 -1 -1
12 4 3 -0.398 3.3347433990783024 27.511856840429882 18.249861844477035 0 -1 -1
488 163 2 0.129 5.329397057698334 24.85250005210335 19.865773815160527 -1 0 0
1043 348 5 -0.35 0.22824441577408833 27.641427289127495 19.57218792913728 1 -1 0
487 163 1 0.269 6.354055751463067 25.446349218462036 18.881386833883926 -1 0 0
84 28 3 -0.398 7.051795379715227 23.7837095614357 16.085938515583102 -1 0 0
1042 348 4 0.7 0.19444198671623755 28.4937131995945 18.78601611419538 1 -1 0
617 206 2 0.129 6.832155514874912 29.05538713370367 17.267687807521643 0 -1 0
510 170 3 -0.398 6.921175371486052 27.767751263370265 21.699209630437586 -1 -1 0
931 311 1 0.269 1.7230108682993388 29.445856188482814 15.153072384146187 -1 -1 0
618 206 3 -0.398 7.4200061938757935 28.35589981866067 17.97747515264085 0 -1 0
616 206 1 0.269 6.049709494424299 29.986424700830913 16.3229406065851 0 -1 0
933 311 3 -0.398 1.9204670167818985 26.763798892150675 15.356514583826417 -1 -1 0
932 311 2 0.129 1.8357592808551948 27.91438854430354 15.2692388607897 -1 -1 0
83 28 2 0.129 7.7398948073080165 23.482709340341156 15.205843608969689 -1 0 0
508 170 1 0.269 9.394884311023144 28.34364770505364 20.792062249408104 -1 -1 0
509 170 2 0.129 7.982384582848461 28.014808060933362 21.310047776581037 -1 -1 0
513 171 3 -0.398 14.088188034255134 28.927474036687954 18.506875926174285 -1 0 0
512 171 2 0.129 14.207962963643185 28.324513565984493 19.48705021529805 -1 0 0
801 267 3 -0.398 10.325872481498696 25.76779846692131 18.924237680471485 0 0 0
800 267 2 0.129 10.28446278596283 26.057291844559693 17.80480576140711 0 0 0
799 267 1 0.269 10.229345300115607 26.44261578713801 16.31480994865073 0 0 0
277 93 1 0.269 14.447727028594489 24.186183324320744 16.26852831643099 0 0 -1
667 223 1 0.269 11.616466495359642 24.01695677585715 21.323566812300303 0 -1 0
511 171 1 0.269 14.367386810883978 27.521955981815672 20.791690150691828 -1 0 0
278 93 2 0.129 14.03521967606795 24.24071166616177 17.751250253966475 0 0 -1
279 93 3 -0.398 13.725303437838594 24.2816787385709 18.86521732002397 0 0 -1
668 223 2 0.129 11.151182778654945 25.144827961447334 22.26325700150395 0 -1 0
141 47 3 -0.398 10.692312408288224 29.739221499963648 16.734931989356767 0 -1 -1
345 115 3 -0.398 18.323916094402083 22.838410650072607 20.819291437226912 -1 0 1
344 115 2 0.129 17.310624487635298 23.050523614820417 21.3359123909659 -1 0 1
343 115 1 0.269 15.96190445788521 23.332852020794164 22.023549615475872 -1 0 1
233 78 2 0.129 16.624281410739588 26.948736740475614 17.166364034490755 0 0 0
887 296 2 0.129 20.920798939782863 24.069048014476156 19.659851261936346 -1 -1 0
886 296 1 0.269 20.189204640209372 24.455483433572248 18.360991204924556 -1 -1 0
888 296 3 -0.398 21.47044478692997 23.77871958597344 20.635683135938066 -1 -1 0
927 309 3 -0.398 20.681569528033982 28.12620285019609 18.991074807521187 -1 0 0
232 78 1 0.269 16.176654678125796 28.294107210021554 16.565357705137217 0 0 0
234 78 3 -0.398 16.960582793618915 25.937961653940125 17.61789930920637 0 0 0
926 309 2 0.129 21.181373489243462 28.927775696109126 18.322998484744154 -1 0 0
925 309 1 0.269 21.84662681704173 29.994692016511955 17.43376984422849 -1 0 0
199 67 1 0.269 18.562991983859632 26.453530660147187 21.73656314690645 -1 0 0
636 212 3 -0.398 22.521359159297575 24.763739004179126 16.181912420593324 -1 0 0
778 260 1 0.269 26.683649669574425 22.877556358567034 17.844576779091938 0 0 0
336 112 3 -0.398 25.30119908359875 29.991976594622496 16.414178610448385 -1 0 0
723 241 3 -0.398 27.13428953664361 26.589873329020428 19.638595561723996 -1 0 0
722 241 2 0.129 27.164996177035004 25.926201268382627 20.585825997343754 -1 0 0
335 112 2 0.129 25.396024998703922 29.388830377015687 15.431390898879068 -1 0 0
121 41 1 0.269 25.665065707954163 29.72774625205097 19.82759536329229 -1 -1 0
745 249 1 0.269 23.43175841437798 26.864544498736624 20.392846051293095 0 -1 0
746 249 2 0.129 22.7613767695997 26.866100009261718 21.779275288841845 0 -1 0
721 241 1 0.269 27.20586759121197 25.042834826392813 21.846616724097803 -1 0 0
635 212 2 0.129 22.92796922937802 25.003937523939904 15.12568236894068 -1 0 0
960 320 3 -0.398 3.7885240649995398 19.587447047057918 24.544799515403977 0 -1 0
688 230 1 0.269 4.116585213760856 20.3087885817275 29.423313723055927 0 -1 0
640 214 1 0.269 3.4877693453354217 16.35311873126305 26.783747100983497 0 -1 0
724 242 1 0.269 0.8418821720983456 17.90823317113714 24.06067937558887 0 0 0
641 214 2 0.129 4.27262515692627 16.228254647838344 25.464652595012666 0 -1 0
958 320 1 0.269 6.409185451272016 18.999519773057298 24.29927065970599 0 -1 0
642 214 3 -0.398 4.862286308881213 16.134444424122513 24.47361860578653 0 -1 0
959 320 2 0.129 4.91277516767557 19.33522908042139 24.4394688198005 0 -1 0
119 40 2 0.129 0.7088702057255218 21.985761438323323 27.690840501065026 0 -1 0
689 230 2 0.129 5.540981891705859 19.961130569897044 28.952327512356955 0 -1 0
225 75 3 -0.398 0.7313481650834224 18.097631880683135 27.237805642682122 0 -1 -1
690 230 3 -0.398 6.611129265980126 19.699935557112735 28.598476183929225 0 -1 0
725 242 2 0.129 0.6700668637404508 18.39335919141063 22.60922071470068 0 0 0
374 125 2 0.129 5.374950701452674 16.804685013968314 29.920835957227215 0 0 0
373 125 1 0.269 6.743005570479645 16.19752321968922 29.5583715715285 0 0 0
765 255 3 -0.398 13.87509532175137 15.967850313075974 22.790451069648896 0 -1 0
388 130 1 0.269 8.622865766779906 15.446555772509832 22.961696731515655 -1 0 -1
390 130 3 -0.398 10.265662340222258 15.55910476000975 25.097665163797295 -1 0 -1
630 210 3 -0.398 10.145394918527835 20.963388762821467 24.593175437502303 0 0 -1
389 130 2 0.129 9.560910528775166 15.510821786877601 24.181345002080626 -1 0 -1
592 198 1 0.269 10.187485537378324 18.05273572010633 28.184476858625022 1 -1 -1
629 210 2 0.129 9.72324047480618 21.62947006908511 25.43979832822239 0 0 -1
593 198 2 0.129 10.724524293652188 18.641994213366434 29.502036649442196 1 -1 -1
266 89 2 0.129 13.098401901215926 21.45478615597402 29.65313134176721 0 -1 -1
267 89 3 -0.398 13.406428125867798 21.26568150951368 28.554037042985936 0 -1 -1
763 255 1 0.269 13.129774027670077 17.6611033043195 24.752898387726194 0 -1 0
764 255 2 0.129 13.555356079166259 16.69424768455123 23.632331509773273 0 -1 0
197 66 2 0.129 14.5372603664786 21.532478826335634 24.76112095802895 -1 0 -1
196 66 1 0.269 13.329321428899416 22.129532364896573 25.506782137903567 -1 0 -1
55 19 1 0.269 17.189737435989823 19.049620317779258 22.76357325502145 0 -1 -1
437 146 2 0.129 15.524905011308768 15.43488305288595 27.24819437513351 0 -1 -1
436 146 1 0.269 16.72468757580766 16.173045218516105 27.87047920956012 0 -1 -1
198 66 3 -0.398 15.444783321529975 21.083913278209007 24.200906681980296 -1 0 -1
180 60 3 -0.398 20.56275353713121 16.77527021736954 27.936929731876152 -1 0 0
178 60 1 0.269 19.907762935281607 18.329275137733365 25.832205279846065 -1 0 0
57 19 3 -0.398 16.568276963585404 17.478345684323592 24.865641738086673 0 -1 -1
7 3 1 0.269 15.343891868943386 19.256719963441274 27.398802167926068 -1 -1 0
56 19 2 0.129 16.834880510701428 18.152414928264346 23.96386449118031 0 -1 -1
8 3 2 0.129 16.817156887377738 19.65477407914615 27.605304241595373 -1 -1 0
9 3 3 -0.398 17.924018982396277 19.953831619321825 27.760448981358614 -1 -1 0
297 99 3 -0.398 21.241015958025244 19.690719620372395 23.30921076997951 -1 -1 -1
179 60 2 0.129 20.281765726104144 17.441930837636853 27.034013087086088 -1 0 0
296 99 2 0.129 21.986347902237494 20.428687513977593 22.82081269366872 -1 -1 -1
829 277 1 0.269 18.405549381175852 21.554519982892913 25.113439990701522 -1 -1 0
804 268 3 -0.398 21.597546016127605 21.513296158500015 26.753118521643426 -1 0 0
361 121 1 0.269 22.357574544698007 16.144802809853996 22.709887524186108 -1 0 -1
791 264 2 0.129 24.472108404723947 15.204476724732862 27.69730962335058 -1 0 -1
312 104 3 -0.398 29.07199936698286 15.123030227270242 24.306400228943215 0 -1 0
310 104 1 0.269 26.507323295961392 15.94972872527985 24.193195793869414 0 -1 0
118 40 1 0.269 29.49589971354476 21.173875177080152 28.18190392253187 -1 -1 0
224 75 2 0.129 29.746064618756975 17.493502146766627 27.291588520398168 -1 -1 -1
311 104 2 0.129 27.971765694690742 15.477679898088603 24.25783607196124 0 -1 0
792 264 3 -0.398 25.127335011014832 16.02196298076418 27.206347999994584 -1 0 -1
181 61 1 0.269 27.738788680129105 20.651106307022083 23.19842685012968 -1 0 0
41 14 2 0.129 26.721120032534 18.699220809152205 29.60819984674925 0 0 -1
42 14 3 -0.398 27.168735332682875 19.436342690414083 28.83687574156621 0 0 -1
85 29 1 0.269 23.84157419897109 19.267248653648924 27.29672893359164 -1 0 -1
86 29 2 0.129 25.019232657135042 19.07293863592609 26.323608091698574 -1 0 -1
87 29 3 -0.398 25.90400592732705 18.926953771961596 25.592503666977617 -1 0 -1
223 75 1 0.269 28.434624116299993 16.68938823991146 27.36317506463561 -1 -1 -1
490 164 1 0.269 1.6868029196160528 23.424096541549005 23.95344400985983 1 0 0
848 283 2 0.129 5.681432980691963 29.936090386088882 24.838689395689215 0 -1 0
383 128 2 0.129 1.8856299965237708 29.74085187923123 27.134816925898125 0 -1 -1
120 40 3 -0.398 1.6201733612145763 22.595730531997575 27.321905190261692 0 -1 0
382 128 1 0.269 2.7813117484396215 28.518398265224178 27.408607650513865 0 -1 -1
610 204 1 0.269 4.30635869601807 22.90581653965273 26.008258953562805 0 -1 0
611 204 2 0.129 5.485733529697169 23.296657829481042 26.918158996343536 0 -1 0
507 169 3 -0.398 1.412628772582687 26.632330990196937 24.66303825867366 -1 -1 -1
612 204 3 -0.398 6.3717963105846485 23.590296382942963 27.60176571679632 0 -1 0
574 192 1 0.269 2.2426927838348005 25.061208781542042 28.453360676902484 0 -1 0
506 169 2 0.129 0.7343546485276993 27.35243577986843 24.063003005933904 -1 -1 -1
847 283 1 0.269 6.934020480708834 29.496751125799765 25.619461813983957 0 -1 0
575 192 2 0.129 3.1096285411215936 24.20179324723845 29.392204291215478 0 -1 0
833 278 2 0.129 6.93484028722671 23.716216095623018 23.759436484938046 0 0 0
834 278 3 -0.398 7.219605905053277 22.671951300478415 24.168176720938348 0 0 0
474 158 3 -0.398 6.361021970941181 28.183954923247633 28.986906402648447 0 0 -1
832 278 1 0.269 6.555809127803275 25.106162322522493 23.215391572716367 0 0 0
491 164 2 0.129 0.18058666328228007 23.34231987258707 24.263645824117752 1 0 0
597 199 3 -0.398 0.5886582310226364 27.430928119945882 29.543728795184435 0 -1 0
628 210 1 0.269 9.161340869506839 22.51604328571951 26.56667754318258 0 0 -1
669 223 3 -0.398 10.801615726559275 25.992196118413467 22.96924502027578 0 -1 0
862 288 1 0.269 12.369260388462703 28.219152929357726 24.65167361205657 0 0 0
102 34 3 -0.398 9.664007370168243 28.194738615035714 26.457286125110045 -1 -1 0
101 34 2 0.129 9.446803360221624 27.337953560261013 27.20387221390242 -1 -1 0
100 34 1 0.269 9.157698627881267 26.19754821509849 28.197599592243183 -1 -1 0
863 288 2 0.129 13.289874330635593 28.23377278893219 25.88611932944717 0 0 0
864 288 3 -0.398 13.981530389787558 28.244756670443653 26.81355679374647 0 0 0
766 256 1 0.269 14.241692536519587 26.430814495659 29.305904195954525 1 0 -1
992 331 5 -0.35 14.78974949265289 25.877051136275515 24.56101368816339 0 0 -1
767 256 2 0.129 12.864052281382483 26.19516773800681 29.952570982664046 1 0 -1
747 249 3 -0.398 22.257719910503287 26.867268662299082 22.820897774454767 0 -1 0
905 302 2 0.129 16.45498321287314 23.026823329052114 29.682316381576474 -1 -1 -1
691 231 1 0.269 16.491074583599826 29.942926678941884 27.788281734441966 0 -1 0
200 67 2 0.129 17.544041068497968 27.074086357320333 22.710344261321 -1 0 0
201 67 3 -0.398 16.778504569099628 27.540309046690027 23.441944747929853 -1 0 0
803 268 2 0.129 21.706662438045345 22.580267154519138 26.31916518299633 -1 0 0
802 268 1 0.269 21.851899507840777 24.00043598240975 25.74156091202267 -1 0 0
945 315 3 -0.398 20.71700163362738 26.204512407172537 27.738428370370762 -1 -1 -1
906 302 3 -0.398 15.632204672345209 23.646319331176834 29.155145463752714 -1 -1 -1
881 294 2 0.129 21.067036564190015 29.063188588313153 26.13019245083309 0 0 0
993 331 5 -0.35 15.851523652684026 25.555603470417754 26.598587498164495 0 0 -1
831 277 3 -0.398 17.466812705857755 24.06204055465679 24.789521734664127 -1 -1 0
991 331 4 0.7 15.32063657266846 25.716327303346635 25.57980059316394 0 0 -1
830 277 2 0.129 17.86952621469833 22.986326316046927 24.928481105162927 -1 -1 0
880 294 1 0.269 20.87997821581013 27.81563290516855 25.246895223532754 0 0 0
692 231 2 0.129 16.749038697471892 29.235172588261765 29.13146402403594 0 -1 0
944 315 2 0.129 19.916046719368072 26.05294451231471 28.55949316596937 -1 -1 -1
943 315 1 0.269 18.84995288362102 25.85120332123342 29.652353827353863 -1 -1 -1
444 148 3 -0.398 25.297016432375 27.773691892040027 27.564568213175843 -1 -1 0
492 164 3 -0.398 29.04896834602372 23.280881167399436 24.49670004431023 0 0 0
136 46 1 0.269 28.25300380673214 25.943396608417142 27.303743856558306 0 -1 -1
794 265 2 0.129 25.32501977870431 23.4753622639258 24.613784448326225 -1 0 0
795 265 3 -0.398 24.779450904941914 23.81698087126357 23.652379054591393 -1 0 0
773 258 2 0.129 26.308593174881814 28.82725606671325 24.84181360275262 -1 -1 0
505 169 1 0.269 29.831552443648974 28.310915793778623 23.264338970307954 -2 -1 -1
138 46 3 -0.398 28.111206480302815 23.804442458889778 28.940379938417472 0 -1 -1
716 239 2 0.129 27.599466630025898 29.836042386587174 29.42234575092024 -1 -1 0
758 253 2 0.129 23.978751803730038 23.839027754764228 29.498503415813076 0 0 0
793 265 1 0.269 26.05118751041917 23.020658153899728 25.893442448630143 -1 0 0
442 148 1 0.269 23.140282384785767 27.630793436416564 29.177604877157446 -1 -1 0
759 253 3 -0.398 24.452142161668895 24.491862471283106 28.668830346515858 0 0 0
772 258 1 0.269 24.9785025015532 28.16343438300933 24.439570426342712 -1 -1 0
443 148 2 0.129 24.37178792178518 27.71238914337249 28.25655316691211 -1 -1 0
774 258 3 -0.398 27.307888570363115 29.325984435573915 25.14401837879565 -1 -1 0
137 46 2 0.129 28.172036849853697 24.722043478913193 28.23827094816495 0 -1 -1

Velocities

214 -0.0036030147102403096 -0.0013095621381119136 2.3236596952674188e-05
215 -0.0018374299163430015 -0.004138625939915522 -0.00048222210022000025
216 -0.000510948353655223 -0.006264097900101734 -0.0008619725629659608
736 -0.0004707862616279893 0.0028365455879344735 0.002227522461186749
465 0.002096696936516005 -0.0003815416001697298 0.000793783914921837
464 -0.00024163195394508587 -0.0005032613545345465 0.0008210186749993932
273 0.002437639108959696 -0.00023067733071381884 -0.00234352022980611
272 0.0014866530912298211 0.0005270999587004174 -0.0013636517203503794
271 0.00022086357757035067 0.001535723144264744 -5.941878641621892e-05
776 -0.000267042016371226 -0.00011936536510782752 -0.0012351908586401901
376 0.0026176286040250733 -0.0012797827880455578 0.0023796358822896673
356 0.003013911854889177 0.004193894943136571 0.005345804686404028
948 0.0022015945039968107 -0.00028911613539894636 -0.0033997884145238796
357 0.0029347906444837438 0.00485853689601676 0.005397001513622215
626 -0.0009258409440339445 -0.0016201488502028617 0.002752610991665601
787 0.00393920299844543 0.007264680061910797 0.002044429993149956
303 0.003398142486187547 0.006987302467444953 0.004351065757932372
302 0.0017776501282428666 0.004794455517683301 0.0008201902349408324
676 -0.0030111333802963053 -0.003164569865101826 0.0010177561782104916
677 -0.00357824198753749 -0.0010254873447936603 0.000380262053672254
788 0.0012788905146549406 0.002845242871673893 0.0006816794087009802
661 0.003290846964757231 -0.0031568111034754585 0.0024881332772477447
614 -0.005054863504559124 0.001794418950058852 -0.003067403732551552
678 -0.004004309947653115 0.0005816025746846146 -9.86864541788748e-05
301 -0.0003792714199289556 0.0018757136830826779 -0.0038795057939329134
662 -0.00014077753093303825 0.00164008471240342 0.0012913560213364242
625 -0.0007163968949732318 -0.001176295020834741 0.00024083867424020073
789 -0.0007197987994655747 -0.00047507454982228777 -0.00034215333558957044
627 -0.0010831959860879978 -0.001953615655773588 0.004639702271705336
495 0.001385582840580948 -0.002814882048172657 0.0016610348234004666
24 0.002284440001954536 -0.00022681237697436585 0.002668862592766846
2 0.00446848768885681 0.0013753689827492024 0.0007573764318905659
814 -0.0030581464386258816 0.0011418602568045405 0.001262494111937412
815 -0.0006734505659948083 -0.00032584179608231216 9.084711555598938e-05
3 0.00560316229432731 0.002990804693687778 -0.0004253966302490416
1 0.0029582034257413558 -0.000774822024031614 0.00233168111269869
523 -0.0017014433066839122 0.002880702784036006 0.003412970696188139
816 0.0011181683461052912 -0.0014285244423096458 -0.0007894097512059
524 0.0006951328705201633 -0.0009461402463713699 0.0011021997950012804
525 0.0024956774400169807 -0.0038212424451904183 -0.0006338793820592373
130 -0.0022004639662542933 -0.0027629712291371575 0.00043543204969952
898 0.002904702698875451 -0.0012417259190010575 0.005202976425445987
476 0.0031981906350369966 -0.0010055843770711904 -0.00015316264106961515
475 0.0015020201349044775 0.00011755284964176486 -0.0018395947360841825
899 0.0022005592486094797 -0.0012569216677679794 0.0049070779875971015
728 -0.0018867827933244604 -0.002262793229020249 -0.0016750181668068892
729 -0.0018368190253275055 -0.0028448181996857994 -0.0016687066810344338
777 -0.001051625901181882 -0.0010695299435531343 -0.0011895656559822033
165 0.003439203086797698 -0.0015612493958879973 -0.0006870542873875375
164 0.0021380560343869826 -0.0012873650864315001 -0.0011411024524563143
319 0.0034868334416621313 0.004854603861436073 0.0006281897276648546
439 0.0024473476455101244 0.0027621705917654227 -0.0031048649833462275
440 0.002935378802167286 0.003033406815329842 -0.003639659971441454
441 0.003302035976357115 0.003237186237838955 -0.004041450751458452
150 -0.0022977844748902 -0.001138305763910431 0.004041988417283136
149 -0.0006817634760453389 -0.0014698447349648122 0.0029513651412028945
148 0.0014692065656323572 -0.0019111325616059161 0.0014997144539396572
163 0.00040619219626036244 -0.0009228172588057376 -0.001745453510542678
918 -0.008140493128703864 0.0032182661641451324 -0.00017257666597286564
355 0.0031192244426371187 0.003309237546908834 0.005277660249138679
588 -0.00856610563634843 -0.000570929841416209 -0.007118542997791847
18 -0.0010550570077484153 -0.001173639129332299 0.0016963853391841924
17 -0.0005207338360826504 0.0005721449672760856 0.002169501791682775
154 -0.0037164507216551515 0.0016828503818616834 -0.001797288414103121
16 0.00019046554539122802 0.0028958333931852626 0.0027992332842046623
666 -0.002460831653348323 0.0002821916197047595 0.0032000690147610997
665 -0.0024186604618340432 -0.0013325105221851403 0.0028825992542996642
155 -0.0028690329110896136 -0.0006237524573403201 -0.004112271672571929
156 -0.0022323690105543323 -0.0023567001748446776 -0.00585151558818778
664 -0.002362529403120133 -0.003481725127639273 0.0024600379482403525
556 -0.002727119812703021 -0.0006798021950902894 -0.0007213772344472979
518 -0.0014983696347432008 -0.0035777351133993362 -0.0015270828307211695
586 0.0043360874879695595 -0.0007596615366048096 0.004206754431632843
587 -0.0030311269767874707 -0.0006518948289331393 -0.0022600449904339242
517 0.0042887741214959535 -0.0027560460126416237 -0.000821653900966268
248 0.0005021274864763629 -0.0032688745871566867 -0.0021404539348083523
249 -0.0006383087897771712 -0.003406122628374724 -0.005301838255488679
557 0.003113034701229647 -0.0024091298245166315 7.240911114849547e-06
192 0.0017054266154277384 -0.0005189125792560761 0.001352386213225675
292 -0.00440637414109917 -0.004302084355797392 0.0005468948247311126
1068 -0.0036927745619910073 -0.007421233912836967 0.008209940597020644
294 0.0032536632802171754 0.0027353141994631565 -0.003321252540041192
293 -3.245585084068022e-05 -0.0002836958592823009 -0.0016618359656839154
1066 -0.0037088364945993143 -0.006199808645636491 0.005905584770467624
1067 -0.003724898427207621 -0.004978383378436015 0.003601228943914604
424 -0.0011883017836512976 0.005698896641380001 -0.0049181987251069054
191 0.00038365590720586566 0.0008605210335221018 -0.0004613513696467441
190 -0.0013756586050341544 0.0026965865163902187 -0.0028754878239453927
54 -0.0011114727835998212 0.0002283303514256361 -0.001370402460556717
425 -0.000639010841494088 0.00016866021385795365 -0.0014073264601880318
305 0.0010041904403253726 -0.0020574611953579434 -0.00037401083202989353
306 0.0004820707752276113 -0.004028893870369584 -0.0017574864444857851
53 5.2455974176797524e-05 0.0014325462102414144 -0.000609001292234215
22 -0.0032210152213076257 -0.0022837118145255914 0.004749015310764234
23 -7.737375159174657e-05 -0.001109212321077729 0.0035612380820968324
131 -0.0006097311103707621 -0.0008831868679089891 -0.00499011265505557
426 -0.00022632927001622617 -0.003986199232014133 0.0012303873128711481
1070 0.0031971033915720844 0.0020177581183733707 -0.007590043186128179
1069 0.0027114557384400923 0.0004322718144594041 -0.006572299290922993
1071 0.0022258080853081 -0.0011532144894545627 -0.0055545553957178076
47 0.0010690128130026412 0.0005379366221073705 -0.008020702878986511
304 0.001699146606488341 0.0005665719243636894 0.0014674346676953238
952 -0.0008201234589663322 -0.0015748005670335003 -0.005060875657647571
126 0.007893436943432405 -0.0005931926333016223 0.008076259307051779
132 0.0005853844183677069 0.0005290926814033473 -0.00906631734557612
46 -0.006142598379772888 -0.007010660347541626 -0.010155934301083431
125 0.0023403291253927647 -0.0030827910118108592 0.00403980136294306
843 0.002857308570824422 0.006854778221142393 0.002577781217693232
247 0.0020200806977386312 -0.00308619352970139 0.002067438765146451
711 0.0015071380657788406 0.0001247667003020181 0.0024069286859671074
679 0.0007303525916241259 -0.0007967259893294594 -0.0044484314210192
710 0.0003757074335270916 -0.000806176862214859 0.0020113984642894252
680 -0.0019855909503276137 0.002743233393519642 -0.0037672881408102503
709 -0.0011302590087094657 -0.002045289296334134 0.0014849364579077179
553 -0.0036862192073971976 -0.006818051917692655 0.0015006295387797611
554 -0.0034690620099591184 -0.0014156938274903633 -0.0008783049747825903
555 -0.0033059120895462175 0.002643090789629153 -0.002665595385296621
681 -0.0040260758061965544 0.00540280028050433 -0.003255546078990928
694 -0.0027354151736378044 -0.0035795990017062273 0.005426484839638141
695 -0.0006563424734652747 -0.0014761597617979256 0.0002876952540123353
696 0.000905662146079943 0.00010415140740592153 -0.00357307068791564
643 0.003212278622695742 0.002808502754075277 -0.0016315505027403331
263 -0.0034760263647419516 0.004585143245637701 0.00016302039916020922
264 -0.004322925823177057 0.006207803639902193 -0.00032534306484845253
660 0.0003729103197781026 -0.0022597551220025006 0.0011338800203226453
658 -0.002668197609853193 0.0038171648313520446 -0.005070616725399976
659 -0.0009317103233748072 0.00034721424619594865 -0.0015278191768598067
645 0.00227768544899231 -0.0005880654862936662 -0.0012455401137115357
644 0.0026786214156125803 0.0008690459167863722 -0.0014111367099689763
283 0.0015706053969791456 -0.0023421245477102965 -0.0001223615390636109
262 -0.0023487790302648046 0.0024253359792873776 0.0008130460988778776
566 0.001196658703990912 -0.0009939544826628515 0.00011519990195359424
567 0.002527278162492496 -0.004279640081437402 -0.002974136723598252
565 -0.0005744337472558148 0.0033793867637613626 0.004227195064745184
316 0.004002051823466888 0.0035355453238067034 0.0034698024553730723
317 -0.0006320180602079101 0.0023167501960134358 -0.00015823199073185717
318 -0.004113588745540202 0.0014010709993531893 -0.0028839695583574437
652 -0.002535562570450378 -0.003757439653020007 -0.00467511439920826
369 0.00493978487789691 -0.000530160562632165 -0.0010130317486455652
613 -0.004257332672191362 0.0015880427741844353 -0.003096302372184425
663 -0.002718952557889943 0.005243986309138388 0.0003922188232264297
494 0.0008036705407475669 0.0006351894088061469 0.0007537319079813944
499 0.0036621454471917818 -0.002725770471107833 -0.004577670879718684
500 0.0030430140297997466 -0.00442562106861872 -0.005056604046073967
501 0.002577861399979883 -0.005702716614930464 -0.005416425911965565
493 2.912867234358468e-05 0.005227332921120196 -0.0004539141505712143
331 0.00415675503791739 -0.0009447323891213443 -0.001192052787869571
368 0.005151313992040651 0.00010410932214338448 -0.0010843957255516085
727 -0.001953285993596982 -0.001488101392525048 -0.0016834189343864756
867 -0.002143060229048032 0.0015385587941900136 -0.0016104664076268616
866 -0.002516778816782468 0.0014328680988713524 -0.0015329123210981864
504 -0.0005334524506303176 -0.0016413157132884866 0.0025272303120544314
503 0.0018397423982246396 -0.0004118223588501762 0.0001434567717300624
502 0.00499853243040841 0.0012246683635655472 -0.003029413800525353
865 -0.003014208916273422 0.0012921907688879996 -0.0014296856199277805
976 -0.0039781353423616935 0.0008435644572959736 0.0006167918411445214
977 -0.0065442987668822925 0.0015335417357544507 0.003509802301025545
433 -0.0028859868899732835 0.005478870135675868 0.0015892122570695052
978 -0.0014119719178410854 0.0001535871788374988 -0.0022762186187365125
514 0.007446680049342743 -0.0012152367100188113 -0.0020749254703077346
432 -0.0018322845992502623 0.007331265282020154 -0.0013171895981976616
284 0.0017011535138141268 -0.0009588660117093493 0.0012401832787723068
418 0.0036154399530063663 -0.0018592289654223455 0.0008018680721205231
285 0.0017992341444492395 8.037432994850409e-05 0.0022638614308737063
419 -0.0018213061883291413 0.0008335904185314139 0.0010701674964680122
431 0.0011952700846690543 0.0034383308202701494 -0.0016096384330753432
286 0.0070753151788846376 -0.0025245939281779714 0.002737453230072207
430 0.005225031721000736 -0.0017432759827506034 -0.0019988961735348484
420 -0.005905926503605245 0.0028567021245278416 0.0012717405055394683
280 0.0042202062918060895 0.0012866224096166573 0.00048806477642967454
28 -0.0018530460769303641 0.0008543113235652976 0.003947995895743287
287 0.0010777320916507136 0.002506714889732957 0.0015885146556384126
288 -0.003428244292719181 0.006286730670462139 0.0007253185967943236
29 -0.0032646673182853228 0.0003466056941252521 0.004301861811569319
883 -0.005104199554159632 -0.003609634377384735 -0.004342164031621936
563 -0.0014318436484074748 0.005953299523058883 0.0015622220949629366
564 -0.0024336067266318507 0.0049934522663615775 0.0030637332364503635
654 0.006761770693012357 -0.002196630962591143 0.004860977301221475
653 0.0027732595377189233 -0.0028662103674210334 0.0007700399273255838
762 -0.007902031430302239 0.00456629309098573 0.002985847109016522
761 -0.003106200077053612 0.0012151090897595525 0.0028508405859578308
760 0.0032771882410128467 -0.003245412398475827 0.002671143053105295
529 -0.0016290691965590058 -0.0015775319590915226 0.0004263669704451709
530 -0.0010500280230832282 -0.0020837601201159446 0.0027344954999877435
204 0.002575112642327394 0.002002235660791637 0.00303525485421795
203 0.0008514763515724532 0.0008383147596211886 0.0006246321832610298
202 -0.0014427327130451823 -0.0007108971572348943 -0.0025839753476582963
531 -0.0006149951414524079 -0.0024640886800544153 0.004468589466663557
115 0.007528512170977051 -0.0005382473054830752 -0.0009107213780218055
116 0.004563643001813192 -0.0005634759005661175 -0.003788990455236307
885 0.0003461463202819254 0.0011418968954335096 -0.004310109266095016
884 -0.0019920257882567807 -0.0008964871174143624 -0.004323860605996631
857 0.005336135001184683 -0.0012759961336403507 0.0016612994973699414
333 0.0017738586869218273 -0.0020330941933339656 -0.0015535666975786794
332 0.0027961097355320864 -0.001566192225416278 -0.0013984789728721764
133 -0.004472771366139179 -0.0026238438068575468 0.00041032221624658907
117 0.002336140645499826 -0.0005824301112875975 -0.005951430274935777
858 0.007871321018166991 -0.002467429092636053 0.0010197821729703497
609 0.0007113113049698631 0.00578728259239562 0.006020559298847282
608 0.0010545391170503186 0.004839948705907395 0.001024606617777742
607 0.001511385124486727 0.00357902028309679 -0.005625148895486798
58 0.001551717525096379 0.0048501013457574425 0.005596925240555496
186 -0.002615665797037791 -0.005009436170325531 0.0007568689629633397
59 5.000345714820689e-06 -0.00039141936030845446 0.0005938627169804699
135 -0.0002007182594390062 0.00017583576508237143 0.0066023609093809055
185 -0.0004239541445196456 -0.0032085869418482516 -0.0019797387797914354
184 0.0024932765770689096 -0.0008116052548516901 -0.005622241739032896
52 0.0016016783483997852 0.0030353918650178214 0.0004044453795174292
134 -0.0020334084501887678 -0.0010252132763468047 0.003946006156708897
159 0.000204933371162507 -0.0012046068207377583 -0.0011102714361041145
158 -0.0011202570010000717 -0.0010425644520653137 -0.001676495253633452
784 -0.003657096076726781 0.002979546704194596 0.0011548279483820448
19 0.003606229456124378 -0.002884822522607553 0.0013607337866655832
60 -0.0011570462624309213 -0.0043293670596059935 -0.0031649316594976502
253 0.0012040468603605142 -0.00233878714623644 -0.00010074532397813464
254 -0.000717634830589786 -0.002015709947263018 -0.0012061924776059912
894 0.004448192139232277 0.0039287922423738375 -0.002840047636720587
893 0.004263696515294342 0.0018036798647797136 -0.003902414274987211
313 0.0004813764895199785 0.004617751435785803 -0.003908473569779792
314 0.0009235670899685104 -9.526644063124015e-05 -0.0011730260054695271
315 0.0012557843138119918 -0.0036361506503809486 0.0008821121970674815
892 0.0040181275776414215 -0.0010249053223378027 -0.005316454571383574
157 -0.00288412318348094 -0.0008268814375834068 -0.0024301553046232336
255 -0.002161391789310238 -0.001772982467255063 -0.0020367134884809414
30 -0.004325216523640962 -3.483288591509399e-05 0.004567720814563294
1089 0.00021544185083318502 -0.008699558697529195 -0.0005703242702448399
63 0.0007631148903953962 -0.0019588794559120097 -0.001232758971089778
69 0.005503946856331128 0.0011957245840979358 0.0037033837955991133
895 -8.677969225802872e-06 0.0005342169595475381 -0.0008262010037743062
937 -0.00339633661597575 0.00024680634032163683 0.005324941202873374
243 0.000631732237037567 -0.0036495813696392192 0.005852383665129253
242 0.002726339448480007 -0.0037537438255742543 0.007384215861757387
241 0.0055143213893800586 -0.0038923870253495044 0.009423128206448247
896 -0.00016451988010814488 -0.0014969155789753324 0.00031787496726602666
68 0.0022321352195245007 0.0042493961321916195 0.002257362112596008
744 -0.0011396011698333829 -0.007585732209097857 0.00046809097083038743
743 -0.002389188135599384 -0.004415575825761459 0.0035022229250513456
939 -0.0033731888736129316 -0.0008864420255373191 -0.0033970535004223413
1087 -0.00028916036172997405 -0.005885414168546092 0.000903764148658774
742 -0.004052424027803066 -0.0001960072602142913 0.007540739095751679
938 -0.00338311914351052 -0.0004002839390342374 0.000344640185789442
541 0.000776806523167365 0.0022933199926046684 -0.000430828212017227
67 -0.0021227393878067028 0.008313920059645607 0.0003326660090309595
897 -0.00028160370536195754 -0.0030229028173330993 0.0011774177584956782
1088 -0.0007937625742931332 -0.003071269639562989 0.002377852567562388
1076 -0.0008622054718387584 -0.00027102502055950125 -0.00039868465062065615
837 0.003910032503322798 0.0005136451597191178 -0.00021740860541422948
698 -0.0030729302778323008 -0.00014359309266787816 0.0026116483794414915
699 -0.004983235815891317 8.393417738552909e-06 0.004553128887969596
1075 -0.002388457680945912 0.00036513165252005723 0.0005869741150911019
79 0.004113792067072754 -0.003850731054667135 0.006887714346271808
1077 -0.003914709890053066 0.0010012883255996158 0.00157263288080286
80 0.00013181829071568554 -0.002537929733592853 0.005796479223972581
697 -0.0005302591208652713 -0.0003458914729841223 2.748244760633319e-05
97 0.0021562879509759193 -0.0026294981844103486 -0.002434616137013493
98 0.002831296531123036 0.001298503072896659 -0.0006375745043375124
99 0.0033384296007530345 0.004249605316211076 0.0007125405404716384
76 -0.004410229924979437 -0.003569476285595971 0.004640116139402027
936 -0.0010610314679098058 0.0038971630713113227 -0.0016929179240376098
81 -0.0028598334360668757 -0.0015516238060065217 0.00497663569377764
935 -0.002369495290553473 0.00044931177686353567 0.0003412958618468308
913 -0.001669938628869036 -0.0017661680169950326 -8.969536980833227e-06
914 -0.001307102339675516 -0.0026649602914070683 0.0040133677421112235
915 -0.0010345039068203731 -0.0033402217599101417 0.007035344516078458
367 0.005432865276207774 0.000948340629450508 -0.0011793832142597393
13 0.000876879320868853 0.006335213272306978 0.004565412673952728
428 -0.00448182098475781 -0.0012744918586583328 -0.001497573677358374
427 -0.001608793852920678 -0.0004998128696514024 -0.0028354280247785196
140 -0.0032456657067337085 -0.0021104635241831317 -0.0017091264369576932
429 -0.006640322537702978 -0.001856507177022637 -0.0004924454436147886
139 -0.004294997317397763 -0.003853286970441135 -0.006201061842742965
624 0.0019392454327088028 0.0019033006533577472 0.00563987972297552
37 0.006268955580076245 0.002860133633616534 -0.0031043137972970453
516 0.002697911810014019 0.0025403238251284392 0.0008843635333821813
435 0.0009387072830394048 -0.0010158558079498034 0.001613582684724661
655 0.002140636059113969 0.005990162830048792 0.0015589703328187814
656 -0.0008477838639853546 0.004072540628555039 0.00011248309964041189
657 -0.00309297987114504 0.0026318335589912284 -0.0009742608800916471
515 0.00473511049481318 0.0009292064579926012 -0.0003851571849230617
685 0.002607179952651163 0.000244318845104887 -0.0006572265620407765
686 0.0037041548883767483 -0.0031514290076960685 -0.0015568355950983449
434 -0.0007020680815047841 0.0017703503161788222 0.0016031278887302036
623 0.0012169305736920736 -0.0005952672863664424 0.005636082538153073
687 0.004528310732944604 -0.00570264995944327 -0.0022327106933110736
622 0.0002555088944476687 -0.003920932478393436 0.005631028376850947
922 -0.000555950059655928 -0.0021710564748675717 -0.0009562805322306972
591 -0.003303705875944815 -0.005938799173798136 0.0017772566812612315
532 0.0011643081376785246 0.0010222435535644408 -0.0002784363633403106
533 0.0006857598720813917 -0.001689864579169363 0.0006129243219055664
534 0.000326227181629512 -0.0037274678970739155 0.0012826024471195075
408 -0.0026204959656903793 0.009522005659978738 -0.004010222394795284
226 -0.006458821014896409 -0.001507192832940416 0.0029888286705870475
542 -0.0011372083622429247 -0.0007919094010986373 -0.0033534759539631466
282 -0.0023646510299623873 0.006056048611038407 0.0017787866106445814
227 -0.004963826956363377 -0.001846911718106743 0.003613153312510335
875 0.001157906882801214 -0.00561864928589244 -0.002049772681894159
228 -0.0038406398617382344 -0.002102142075338849 0.004082207605176078
650 -0.0021494650795117363 -0.0011448796404665965 0.0039041736794858646
649 -0.0040021785626787685 -0.002831798495327614 0.006992139020432581
129 -0.0015960605485662936 -0.0019884646175315256 -0.0016223733431034667
127 -0.001192519608707006 0.00036193313593255584 -6.288703055190527e-05
128 -0.0014229434305028188 -0.0009801553106134901 -0.0009533612320088591
168 -0.0013345535404215379 0.0017210696511111762 0.0016398739550998456
167 -0.0006866722781899079 -7.973524851023501e-05 -0.00044341601280145247
876 0.0018653104699612945 -0.007888713191877474 -0.0008819280877350813
166 0.00017567616073552 -0.002476657932535275 -0.0032163343797573674
123 -0.0035609391325383613 0.0006088407639883333 -0.0013750328351141157
651 -0.0007575238457297531 0.00012250030438677728 0.0015841893291771978
543 -0.0025752052599180546 -0.0031098382377964854 -0.005549257406840694
122 -0.0022405739548054197 0.0023449355631041343 -0.00031101597253996354
281 0.00046022102094088295 0.004009987760076235 0.0012250731652657598
753 -0.0025311819056630675 0.004114799827780081 0.004352060246292973
45 0.00020148783282475814 -0.004298223959406562 -0.003342829182933161
43 -0.004656054577348948 -0.006476182471079865 -0.00010450067775273175
44 -0.001882374446956841 -0.005232557662782916 -0.001953601863506475
481 0.006844094019831303 -0.003503435215907584 0.0028509256429497193
78 -0.0004664925074874828 -0.0007659815179348886 -0.0046962941991837304
77 -0.0021583368501045318 -0.0019686672599385476 -0.000691019167020698
934 -0.004111097958549384 -0.0041398766357981665 0.0030488924307855185
482 0.0025557947090662945 -0.0008794577338873432 0.0023440410683156954
752 -0.0028605381924628934 0.00423302562392089 0.004027853899015228
483 -0.0006659989938915677 0.00109193314059149 0.001963219345684812
590 -0.003464668363238781 -0.0012282647103563317 0.0041975775390542735
274 0.002812624090781479 0.0015706793812877986 0.002663964909785121
756 0.005005649142990828 -0.005878973408143465 -0.0009537636532120726
589 -0.0036789140248055107 0.005041591014535941 0.007419093633264536
620 0.0013555059610916994 -0.0007475814265420331 0.000801544706189646
619 0.000954530412231614 -0.00020440138859318763 0.00316723014281452
276 -0.0024548680394319996 -0.0008486414767451956 -0.004247223661212585
275 -0.00019513930578091729 0.00018923550981177992 -0.0012823570773622547
755 -0.00010698616875667562 0.00017593003253329304 0.0006436928787663184
754 -0.006912049591480271 0.008235179210270695 0.0027699530855482997
648 -0.0004896617770932912 0.0022783041100946037 0.005661438192578018
497 -0.0007302031883455681 -0.0004215456330911658 0.0030438673607258533
498 -0.0005734561736375869 0.00012550869392853104 0.005313881289441347
496 -0.0009388379356664794 -0.0011496905454596506 2.2414076177995016e-05
647 6.635011738245468e-05 7.25658647174004e-05 0.004205983467823734
90 -0.00014072967419623077 0.002840249695278952 -0.0014776125213226388
646 0.0008064178075230451 -0.0028633346520335937 0.0022687317166382604
89 0.00119153268859447 0.0012932311563255937 -0.0021623771753789467
462 0.004736816475834106 0.006292232073047806 0.00021208612115787735
461 0.000864467248182201 0.0024195220978906057 0.003865343301125463
88 0.002964811892308978 -0.000765894643145606 -0.0030738184608125802
891 0.0015072832907774187 0.0017022352583246198 -0.0006026403489293396
930 0.0013953687820654434 -0.0008255519594047808 -0.0017686505914430296
379 -0.0014229009361435116 -0.0017703838773382554 0.0006788249358422551
890 -2.752524713408035e-05 -0.0014701297874645308 -0.0006236370232729793
460 -0.0042897400211211 -0.0027351653366315043 0.008727932806008847
1091 -0.005596992796965539 0.00287828886228488 0.0008198964711194706
246 0.003866118066385619 -0.011806844809975254 -0.004050340785417229
387 0.004367459979684058 0.004102859697363328 -0.0026828493572896403
385 -0.000691362986337758 0.0038046376099553827 -0.005665356008114972
386 0.0021972493116502287 0.003974923859346647 -0.003962330334302953
929 0.0016947200402726691 -0.0010892115948803762 -0.0026072589753428823
928 0.0020931651030549657 -0.0014401500898090025 -0.0037234706531352538
402 0.00024005026204514893 -0.0043490097295864226 0.00022599537629266488
400 -0.005672307258303061 -0.0002396578692421135 -0.0037007766855915248
401 -0.0022963226156125713 -0.0025861175892755743 -0.001458570910544561
62 0.001396394371670593 -0.000843386194121712 -0.0013515155283058838
61 0.002239307423670423 0.0006413671534643386 -0.0015095838931397695
219 -0.001615799811231807 -1.3232767257445035e-05 -0.001556084913234934
217 0.004438401145895869 0.0029569720701276775 -0.0008819481983970868
218 0.0009814232170947468 0.0012609707910868574 -0.0012668835120234435
1090 -0.001011441020130333 0.001582968017845883 -0.0002713052665168243
1092 0.0035741107567048725 0.0002876471734068859 -0.0013625070041531193
384 0.0018090448601158393 0.003243505480011135 -0.0004504139413133496
836 0.003562821008778195 0.002258482647093944 -0.00148993951430484
835 0.0031006726063592775 0.0045809111091140295 -0.0031837144492154338
108 0.0021251372076339474 -0.0012384479495293394 0.0013091919993521725
107 -0.0009096726125999649 -0.001492383919191128 0.0004787409401715148
106 -0.004949091042297691 -0.0018303799375827923 -0.0006266131057560676
528 -0.00042822325357994386 -0.0030705763730487366 -0.0004131134353596832
527 -0.0011145212620239692 -0.001122992577342059 0.00024771685433237425
526 -0.00202800348588205 0.0014692970038059734 0.0011273008181403024
947 0.0023825814748330114 0.00016644836575520518 -0.0031485668085999958
463 -0.0033540144010583825 -0.0006652738192897828 0.0008572689174535401
849 -0.0004571047318932026 0.002329799804319964 -2.8880822051080915e-05
775 0.0007772615122445102 0.0011453307894347526 -0.0012959193047018156
946 0.0026234802951335726 0.0007728177104201946 -0.0028141836857626754
840 -0.0008184268716686699 -0.003544716910583553 0.0016902573300936873
580 0.0009321214290500825 0.002045735441653764 -0.004126233655811838
14 -7.135869085683595e-05 0.0024879824300961524 0.0025194718592465113
188 -0.005558781545811858 -0.0006925909714699365 -0.0039829083208433305
187 -0.004259348753876782 0.004448777009520226 0.00020631731483649295
38 0.0021295283591066085 0.003509742655112884 -0.005081034749283279
15 -0.0007837686775884049 -0.0004024371052531381 0.0009823591822237289
39 -0.0009804179361283679 0.003997793069315003 -0.0065661426333404795
397 0.0003244100654585659 0.0033155491068675223 -0.0003719649940023529
398 -0.0018780901392868995 -0.000271204596301513 -0.002402171579574325
399 -0.0035328256827222852 -0.0029659279953707135 -0.003927463150682619
261 0.0017459411127229837 -0.003729977710293545 -0.0027945956112318173
260 0.0011243253392998825 -0.003728475254777547 -0.000337718583042934
96 0.002399619886588479 -0.00045467631495975857 -0.003115332576057899
95 0.001236225881290619 -0.0020965389395644967 -0.003912386515277169
111 -0.0005346619766164404 0.0016936023867646223 -0.0006718579695802415
110 -0.0013191925216391928 0.0010283365274471096 0.0006559527437092622
869 -0.0008198516212002778 0.0006795265692547749 0.0005622297145605251
870 -0.0016853308086286478 -0.000775041206792225 -0.0015685607289186577
189 -0.006535043714817614 -0.004555294058486563 -0.0071302681003768105
882 -0.0037014752045939382 0.0018935292934070967 -0.0018063751500915625
94 -0.0003122847221309075 -0.004281904922184467 -0.004973288041982165
868 0.00033212586249867313 0.002615597766413266 0.0033983725693210675
923 0.0009646916795808752 -0.0004934112875612604 0.0002337799176414575
924 0.002107147843410078 0.0007670013629019836 0.001127870788097357
828 0.00267778181502178 -0.0012038356623127293 -0.0007291227517827174
637 0.0013824850989484537 -0.002307292027992253 0.0009986115102360725
65 0.0003217747726152579 -0.0014357308379735066 0.000833638615992174
64 0.0021653927250477392 0.0008072163210862242 -0.0019265917494021081
66 -0.0010633330007382468 -0.0031208541256566988 0.0029073961047981415
900 0.0016715371888966699 -0.0012683382140818297 0.004684769875524921
827 -0.0002587631217754857 -0.003192209188373076 -0.00107644910742607
407 -0.003197978660247192 0.004326749478325465 -0.0006241795540349295
826 -0.004167388188904091 -0.005838791064028169 -0.0015387503932434935
417 -0.0009867699721910486 -0.00026775180529347415 -0.005074706878236284
320 -0.0015093139091894906 0.0035356458255569804 -0.000805189268825744
874 0.00021633253169790452 -0.0025971294801733773 -0.003604207146029832
71 -5.014149703078227e-05 -0.0007784482634417228 -0.0005347626744599784
706 -0.0025305930982699003 0.0017490298205030616 0.0019100412777033607
321 -0.005262912925381234 0.0025447143661335354 -0.0018820850473579712
707 -0.0008932657394099386 0.0016221019863898898 0.0007319177644400491
708 0.0003368561789023831 0.001526741269462009 -0.00015320490104413817
349 -0.002730814675348211 -0.001374921195656539 0.00248987038787231
70 0.00031517988827323184 -0.0007985976193263282 -0.0009320264299545609
72 -0.0003246069793663325 -0.0007633100785336132 -0.000236298930883852
477 0.004472521328967727 -0.0018493959168808588 0.0011138516017432777
715 0.00030904031413165993 -0.0023418285007719116 -0.00045186846600995026
519 -0.0058462432230345805 -0.004195069067669904 -0.0020570706695045636
838 0.00042816655954478904 -0.002097149020729052 0.003240530312299071
582 0.005359653796311753 0.0019526344766934794 0.0010323350305060386
403 0.001363507491966229 0.0013263121172223803 0.000685577279631946
348 -0.0068049620740572875 0.0014556610850220114 0.005523301192789031
347 -0.00486861628072525 0.0031423883368828136 0.001988626242627722
1025 9.128679837525858e-06 -0.0005879409044144846 -0.001501238519168733
1024 -0.00143050621932181 0.0023263633681510367 -0.0028986130532908626
346 -0.0022912848012686055 0.005387470418011282 -0.002716126932176441
1026 -0.002870141118481144 0.005240667640716554 -0.004295987587412986
405 -0.004464915764032195 0.0005309420631770608 0.0014806269701759934
404 -0.0019645502812030606 0.000872151982543184 0.0011395544852077092
839 -0.0002836442984710529 -0.0029237172633600973 0.0023553169668796047
581 0.0034602637522176648 0.0019925743418989102 -0.0011806660707434186
598 0.0010990675926389095 0.0016595595672906829 0.0014201540635315952
93 -0.0017078512364269932 -0.0027187700630790014 0.004460758862481691
259 0.0002969370151239332 -0.0037264754436326505 0.0029324548166207464
438 -0.0019877324397324144 0.00545551270809603 -0.002024196492076824
603 0.004549031903445766 0.0005187169130619411 0.0010739095091950239
109 -0.0023634250534758715 0.00014284869395621183 0.0024233066749675455
244 -0.0014993638934253488 0.004423344839904162 -0.0011698361126387014
245 0.001564352168164891 -0.004844171682459331 -0.0028146181653190597
602 0.002762275679958778 0.00023166416796201387 0.00194331580136121
445 -0.005731691863162124 0.0003511921902119808 -0.00044267118443974977
601 0.00038405218456556136 -0.00015041122309579743 0.0031005203734752284
447 -0.005671833058446792 0.00023579406752549127 -0.0004831714808962592
446 -0.005697512197140021 0.0002852993059193617 -0.0004657970489347533
855 0.0004277399991792166 0.0025300685900745998 0.004855575112318289
854 0.0010696524580159365 0.003065749341241105 0.0003290938223197178
92 -0.0009199101078590544 -0.0013889102923591 0.001073975642711512
91 0.00012886200795307547 0.0003811709927823432 -0.003433929420768252
406 -0.0039666245976866825 -0.002588284678758443 0.003882740043865662
853 0.0019240562493803108 0.003778755699751417 -0.005695781879147734
796 0.00023595281289300637 0.0035178537557096923 0.0003127361013653988
416 -0.0024868371091711244 0.001291716111858021 -0.0055803193492330655
819 0.008967934936277643 0.00020464512296694028 -0.0037671160295043096
415 -0.004483469253466133 0.0033674123887926007 -0.006253303969228785
639 -0.0006574174853908757 -0.002829800095460764 0.0005879512472799974
969 -0.0020257522289957534 -0.0009590255325138209 0.0011717891795909967
638 0.00021769089061231354 -0.0026056466530947767 0.0007641225206356444
967 0.0010973051307937994 0.00037944614450625616 0.0017899209129152694
968 0.004220362490583361 0.0017179178215263387 0.0024080526462395458
889 -0.002070399186964424 -0.005692638145731862 -0.0006515841956923536
798 -0.004008057448781608 -9.546034005123685e-05 0.0008158925503942785
842 0.0018694700481711461 0.005110180181453675 0.000834355692580226
841 0.0005546287993500206 0.002788070431133343 -0.0014861934073973273
797 -0.0021873975033765147 0.0014546339902399756 0.0006000408590607901
818 0.0029742814540385716 0.001129319039457717 -0.0020778043883207214
817 -0.005003442282044538 0.00236008639589315 0.00017071758870842503
48 0.006487086936406053 0.006209187722031977 -0.006416506284592938
231 -0.00039767288077307964 0.001629714974530606 -0.0002165989950611868
790 -0.005065655710251337 0.007688660918947092 -0.0018350157413515528
363 0.003732022973561083 0.002665558822899314 -0.0004816815389038768
362 0.001732088252068114 0.0014949960036187398 -0.0004489611101426024
252 0.00045601685562701787 0.0010223931049933095 0.005154270037821231
705 -0.000919451311924566 0.0028438857998757715 -0.0018640719313983145
350 -0.0008810881324691126 -0.002002569454483315 -0.0003078637587008467
229 -0.003690531538525094 0.0026426993810605656 0.0051382304451307115
250 -0.004136082332162063 0.00015734159589907452 0.0007264769028961417
704 -0.0010908407402826779 0.002680933891647036 -0.004249696132094425
599 -0.00037848860998252246 0.0017018656934175778 -0.0032257259338632147
351 0.0005086090169536953 -0.0024741207762122653 -0.002409797789600297
600 -0.0014885746661078387 0.0017336502310337006 -0.006716169542295548
703 -0.0013189649578034094 0.0024640402540737896 -0.007425029986089253
230 -0.0018102933728083304 0.0020642804021743437 0.0020805970235899117
251 -0.001513971561233185 0.0006512901772876978 0.003254768125656478
395 0.0017996878328045104 -0.0002833925122621045 -0.0013355410478403757
396 0.000888110065578067 -0.002723834663388147 0.0025239460377100287
394 0.0030130238410402445 0.0029649055972747196 -0.006472628439152083
459 0.003636934606384432 0.0013482043907597906 -0.0022839575671878484
458 0.0012450966510394131 0.0017603080051317407 0.0010168436850048982
824 0.0016805812570212866 0.0006617317162205332 -0.002344657465831148
825 0.002532695978013369 -0.0014029725280198897 0.0006853583407516609
919 0.0005001554457266535 -0.00010945124585543561 -0.002133286820530075
851 0.0004653712757773369 -0.00030625868148738633 -0.0008113187034256585
852 0.0007711008151518251 -0.0009091505772904345 -0.002628625065055329
850 5.8436538839811726e-05 0.0004962076275330976 0.0016075678971877315
152 0.00045201263657775124 -0.003597588484519048 -0.0005556757490840171
153 -0.00010908003679707505 -0.004562997973296152 -4.338450298332669e-05
558 0.007500735202930991 -0.003708371426624611 0.0005546507776183599
151 0.001198842988347179 -0.002312600919508896 -0.0012375500092353263
235 -0.0030940652314545413 -0.0020859204849825452 0.0003660487342175634
375 0.0008572552791001987 0.0026430400929263083 -0.00029588205876216866
823 0.0005463922593308651 0.0034099119548810885 -0.0063776949266241695
733 -0.005303290151502299 -0.00010680266982887013 -0.0015753174598223982
735 0.00605736801747273 -0.002698710738123382 0.0017703506472176236
734 0.0011837004232924946 -0.0015867946702640041 0.00033507515598836903
813 0.0016119693781111496 -0.006052248409073665 0.0002998767650592485
222 0.0027387262904128716 -0.0028001169478084568 -0.0026515131304044154
221 0.00020798141333084756 -0.0018144189390378602 -0.0006659033820670774
391 -0.004670691941738938 0.0012410356793438244 -2.473445066301233e-05
392 -0.0017717122891061493 0.0017144688599234144 -0.0037337190699716577
265 0.00230911313024317 0.0010256712310848456 0.0011116854652870828
594 -0.0034438063582269253 0.003644549229562985 0.00014344181531259696
220 -0.0031605122000713205 -0.0005024267752464034 0.0019769998266101
904 -0.0015175717475537666 0.00223147247481164 -0.0003698918985699484
820 0.003049495030200332 2.3443137787936387e-05 0.0031827994497765372
954 0.0030274090550329105 -0.0004610868508723554 -0.0008141154494980458
551 0.0013491192432413019 -0.0018981915753742595 0.002434100276082787
535 0.0044321719657708005 -0.0025665466926761134 -0.003428942775860672
536 -0.00126181356070015 0.0008248252094030109 -0.0018043876837004287
720 0.0022247712873908095 0.00015549879768406204 0.005846133405835462
719 0.0022849287908335908 0.002276123144734709 0.0027813997218725677
537 -0.005539697491951376 0.003372758515055965 -0.000583861552772249
718 0.0023650001437306315 0.005098734635191058 -0.0012978482239380312
953 0.0013768361522901876 -0.0009388646668154202 -0.002635955108685662
821 0.0036087215274922895 -0.001864739248393298 -0.00016989766546380696
124 -0.0050510157663799645 -0.006396517462030573 -0.001332839288679615
633 -0.0007660063611387273 -0.002181485497482523 0.004901810862134905
822 0.004028867668639559 -0.003283328222946338 -0.0026887746539917797
327 0.004354683980362988 -0.002920517129760383 0.0003039849635637266
550 0.0023206028204934338 -0.00632901942306077 -0.00043716913169808457
236 -0.0035320802814564753 -0.002879225417587758 -0.0003546282872180405
552 0.0006192448933187718 0.0014306836322707313 0.004591281253227241
330 -0.007597714401796812 -0.0006338928952403068 0.007767574261537252
237 -0.003861160419672213 -0.0034752343831879096 -0.0008960719974784288
329 -0.004078457279708865 -0.0008389337362194836 0.007623237427602095
328 0.0006057743261817395 -0.0011118489437457856 0.007431120984853485
323 -0.00019105607570672336 0.006503858911876802 -0.0017988442437153955
1085 -0.0011714684634415475 0.0012487929405000466 0.005075395617021566
1084 -0.002468065099948095 -0.0006035729209464586 0.004847918540322206
324 -0.0002490983449826676 0.006919589023775564 -0.002190725219462386
1086 -0.003764661736454643 -0.0024559387823929637 0.004620441463622846
322 -0.0001138001598165304 0.005950510275468772 -0.0012772394877513795
40 0.0005325903935146452 -0.0011668650248997992 0.006939243404027585
907 0.0018037679542481765 0.0002621299639629859 -0.0017540459723696577
457 -0.001938507887622069 0.002308829669896476 0.005410304297257996
750 -0.00441388160976486 -0.0022295961654132243 -0.0031422328934225165
160 -3.475321216519112e-05 -0.0010204644170088966 0.0007225940461602189
749 -0.001601295184840753 -0.003989287935173444 0.001276919334243603
748 0.0021423375674350666 -0.006331487870722912 0.007158936992502734
365 -0.0008368924970516197 0.0026790120556883833 -0.000957467766632552
364 -0.004432604724887922 0.0018347377478226874 0.0014591513491357413
1079 -0.00212681632027503 -0.001578048652077417 0.0018968583215300048
576 -0.003803294042044436 -0.003253978625131131 -0.0034710184087664775
1078 -0.0008607072435614172 -0.0023728577759748715 -0.00045520078545933983
737 -0.0015112449687006992 0.0027451678975589804 0.0010859372800498632
738 -0.0022929402440793494 0.002676515957452193 0.00022826581603988178
366 0.0018645614299656564 0.003313314246727741 -0.0027730705698428863
1080 0.0004054018331521958 -0.003167666899872326 -0.0028072598924486843
901 -0.0024736581138614664 -0.0002158780309006942 0.0012136315786584694
472 -0.002674813877830124 -0.0018593746062685397 0.007992734008660927
473 -0.001367693363169312 0.0003590804229288651 0.007554994397180353
809 0.0018645620977980983 -0.005059571693097586 -0.002257125236993296
903 -0.00015522965460264293 0.002569663259163921 0.0007877044133808356
161 0.0007450234138568944 -7.53575131949388e-05 0.0054877601714859335
768 -0.0036989846652215955 0.002258043925718067 -0.003954741682624211
902 -0.0011498242884040743 0.001374679472510319 0.0009704251142433577
682 0.003462440494872653 0.0011024762466760912 0.007658284066904469
683 0.0003500511876436535 -0.0015106012056251973 0.0042490103833675436
684 -0.0019882828568134757 -0.0034738029019320683 0.0016876274925544015
1062 -0.002114745402733564 0.002121125855811771 0.0017162588792431792
1060 -0.0011050228545762596 0.001982643019952812 -0.0007857902095221712
808 -0.00020912682088211425 -0.0036036400090315767 -0.001303538931688602
1061 -9.530030641895552e-05 0.001844160184093853 -0.0032878392982875213
810 0.0034225218893000555 -0.006153411276516014 -0.0029735533897449306
409 -0.0013115280363233989 -0.006339712730032098 -0.00428775786607145
615 -0.0056540473831627 0.0019494691029722966 -0.0030456922221260728
162 0.0013308685802903744 0.0006347000762289227 0.009067823292915706
693 -0.004943297121957643 0.00017759503807469922 -0.005099367597113141
325 0.004872644765613586 -0.0008070655647712125 0.0024574396928052702
326 0.004576886660576166 -0.0020138565955770426 0.0012278066623892605
411 -0.00015975570621717993 -0.00503947748768392 -0.002342006268952874
410 -0.0006538604840936709 -0.005597272139295652 -0.003176724325262178
256 0.0003638655786948053 -0.006176655473038762 -0.007225047871475108
257 0.0022538522676469183 -0.0014719305526741393 -0.0037533097526300696
258 0.0036737968125284716 0.002062723169963423 -0.0011449974126925872
916 -0.007292248710662595 0.000704317757108349 0.002145826967697246
4 0.0037064363739120728 -0.001026715527732599 -0.0011142234049347556
917 -0.007776600362046929 0.0021397944151864585 0.0008220073177706721
757 -0.003916276191812471 -0.0024707111522046096 -0.001789793307665078
1073 0.011346566513689822 0.0031681909811752413 -0.0006991678888500772
171 0.001476596311628543 -0.004226143198769648 0.0012889998123733926
1072 0.004655112851627039 0.002518938910247277 -0.00228185998513811
170 0.0013283244865823214 -0.0037357621110268857 0.0022550600169997364
596 0.000621547356817214 0.005864571996322253 0.00023938153985447318
604 -0.0027216024270293893 0.00027281749785079516 -0.0019016806162923253
595 0.005442899628993979 0.010583262317836118 0.005598771691007235
605 -0.00032236897801440515 -0.0018960641925049228 0.002169031113939182
909 0.0077317367092655485 0.0012325102887396143 8.254208145029173e-05
423 0.01189627990608292 -0.00030591114630972277 -0.001574112843665573
422 0.005595795951008002 -0.0008738241448473719 -0.0014743787723177576
908 0.005188666687183569 0.0008162218068091106 -0.0007053453409708002
606 0.0014801719963429486 -0.0035255421897397075 0.0052273515502235125
169 0.0011309704584309124 -0.0030830508965723883 0.0035409137033649623
421 -0.0027903278958505816 -0.0016297325439381051 -0.00134162987873467
177 0.001255876104049156 -0.005530972435849222 0.001493774310033038
717 0.006059607230023016 -0.0011104914291753237 0.001461294639887761
562 -9.846841896447574e-05 0.0072308835985246 -0.0004363320605173108
785 -0.003987257571083664 0.0029869972804842026 0.0002992672509858445
920 -0.0004166490633173769 -0.0010764428737450578 -0.003128866012740964
559 -0.0012587538891979284 0.0019799825669693082 -0.004539125906669458
560 -0.0010248504793525528 0.0010832004466747114 -0.004135928517862221
449 0.0001408592308929609 -5.834351543072358e-05 0.0014811901878357305
448 -9.644626339004131e-06 -0.0009940662662821557 -0.0018178050737400451
561 -0.0008491191513063816 0.00040944920434948383 -0.003833006843284316
921 -0.001105443100306952 -0.0018029424279452494 -0.0038768433668890214
32 -0.0010901977739144956 0.005564813443433285 0.0024116036611680643
33 -0.0004073242648570812 0.0057449497629223885 0.002024380741558073
450 0.00025393258337178285 0.0006446637720596057 0.003959721043448178
786 -0.0042353074730128275 0.002992594888774512 -0.0003435143898501308
573 -0.001032785707936409 0.00045930172615540584 -0.007949922509945955
31 -0.0019991218914152896 0.00532504686433802 0.002927008411556473
812 0.0007099699576552434 -0.0070636606245494905 0.0003114782186345196
289 0.0018271098138883507 0.004210393775874173 -0.003863658624646627
811 -0.0004906169978348985 -0.00840987913088724 0.00032692008424032676
393 0.00040628735900822416 0.0020701585936445635 -0.006520274397595113
454 0.007476998265001311 0.0029494441513733165 0.002370950231208519
455 0.0018031165566818191 0.0016286629314653446 0.0026112902078315446
540 -0.01014658974366066 -0.0021551846542569282 -0.0021824534729167145
539 -0.002060733572186755 -0.0017286163280858208 0.0008515083955051019
856 0.0019617301039048466 0.0003098351168811613 0.0025151773535284348
291 -0.006410507732675135 -0.006589486563395125 0.0028897464732941256
290 -0.002876609511920975 -0.0019563899551138554 -7.4317611580313695e-06
911 0.003196778286510076 0.0011243631194200058 0.0014636986262711183
910 0.0042386475507098995 0.0020228613350051655 0.006291032697360662
34 3.688498642768134e-05 0.0007902665823260988 -0.008512427189922721
912 0.0024140232613936996 0.00044932257693168997 -0.00216307119207345
871 0.0026735694875901447 0.0018460771114480318 0.0012693891617056733
538 0.008701771617156195 -0.00116084171935333 0.0048897981771555635
35 0.0015157352402275254 0.0008217472900219273 -0.0033495189917021675
873 -0.00015049885984810634 0.0014588685391837672 -7.599534324717312e-05
872 0.0010610128487117969 0.0016249791502737766 0.0005011681243948155
21 0.004639454324819776 0.0005312374547611944 -0.0003007967953834276
20 0.004196205836469547 -0.0009342358095382629 0.00041199181545480124
522 0.0021815640879422893 0.00010762515733179958 0.010606352153621323
521 0.002748371273728689 -0.0011758096643754011 0.005126425412147548
520 0.00350280780450746 -0.0028840980182466757 -0.00216751337944239
579 0.002608501617131561 0.0016513367300315606 -0.0009405714025153244
578 0.0006896554587794701 -0.0007940311430531979 -0.0013818016859364298
358 0.003451983536667604 0.004619214932565785 -0.0010396311124375958
632 -0.001674134191398251 0.0008173247552527272 0.0015918080981983272
360 0.002275046498966705 0.0027039100690744453 -0.001376916531678595
359 0.0027799468151031292 0.003525566623416112 -0.0012322227125974548
577 -0.0018643835073935818 -0.004048885529008712 -0.001969091777957607
631 -0.0028828782351317532 0.004808826733828572 -0.0028138999886316886
807 -0.00017653479083089437 0.000948202771853727 0.003508188524746922
877 0.00024849846843794955 -0.0049427447655769315 0.00789908663753855
572 0.000815050185325912 -0.00027330933337672294 -0.00358597462090046
806 0.0016623193112038073 0.0017395271586198068 -0.0005350661011006817
859 0.0017413499732553458 0.004253765216978548 -0.0034759853387349307
860 -0.0005450086708112705 0.0019570350131865692 -0.0007069317405516952
878 0.00011256262375779881 -0.004158620683412824 0.004017517250263447
730 -0.0006434393729924637 -0.0003863878388133806 -0.0017716315040844572
805 0.004109886568881786 0.002792802487591079 -0.005916753329973011
879 1.043420018966804e-05 -0.0035695092788258975 0.0011012992106028741
731 0.0022941878566667194 0.0006071183104922593 0.002162501447726708
861 -0.002262746950801592 0.0002315045938441648 0.0013734546315898666
732 0.004501223379209381 0.001353538190197855 0.005118210425158853
571 0.0032745724633068676 -0.0012484355491757435 0.00222256448811429
378 0.0021315391880786278 -0.0031438644917263525 -0.004452626529596393
377 0.0023400692044857605 -0.0023441824260390324 -0.0015216188875674078
142 -0.003982546930510561 -0.004485431287287032 -0.006140868887587544
471 -0.0037647453189634367 0.0037757523981059556 0.0012976961169496276
470 -0.0037938719471782563 0.0017760580648242884 0.00017517754833118367
950 -0.0033765702513799756 0.0015488976800117726 -0.000546171925489098
469 -0.003832640320083018 -0.0008855921281348861 -0.0013189266830192098
479 0.001280531890389388 -0.002013845956993377 0.0008480903403645174
144 0.001350485237722363 -0.0046301368240102584 0.0026046447163899965
143 -0.000937359856324917 -0.004568058846261355 -0.0011471384648491676
783 -4.23705037038845e-05 -0.0022659271207406866 0.003564142353809445
782 0.0006827780400985036 -0.0035706706424054675 0.002199961645660171
781 0.0016479714346150794 -0.00530732148368789 0.0003841982138970935
478 0.001105106429518611 -0.0013087892974887258 0.0008214714307258555
480 0.0014123288113163297 -0.0025435541096212226 0.000868089092606031
370 0.0011368380812811548 -0.003427703969557908 0.010229885069217739
951 -0.0027370665541768644 0.0025350297702445295 0.0011889184984408404
949 -0.0042277679123072075 0.00023632774141327663 -0.0028556267680579124
270 0.0005380134762755905 4.0168265223400465e-05 0.0031396455023259486
269 0.001148693737205704 -0.0007554409555337632 0.003408995162682781
268 0.001961526582350367 -0.0018144195207593764 0.00376750724301945
456 -0.002459663402101071 0.0006363617162487535 0.002791857320138576
547 -0.0004246404132613968 0.00031029854626939916 -0.0028906566797959523
36 0.0026267935153226037 0.0008453987048297684 0.0005293672325453599
1028 -0.0043067470859543735 -0.005730412874609017 -0.006151262388990194
1027 0.0015071449590227668 -0.0031071396075700772 -0.0024719139228717713
549 0.0011561198145485746 -0.000578627342346638 -0.0023914013069585003
548 0.0004779812963520106 -0.00019728242090475843 -0.0026055794554097145
82 -0.004023699203061565 1.1657182827503557e-06 0.0011705023012785185
1029 0.0073210370039999435 -0.0004838663405311327 0.001207434543246694
712 -0.001985530694323357 0.0003191158303350129 -0.0008094425774820171
372 -0.009504379626443333 0.0035946557105439223 -0.004727330344784236
713 -0.00010722410881031037 0.0010823131217561296 -0.0031872691835743046
371 -0.004939348522313854 0.000582097256751634 0.001689242971493204
714 0.0013039451895264368 0.0016557022556354967 -0.004973727224644944
352 0.0015063380413051861 -0.0005820562078873315 -0.0007787951588144248
546 -0.002011439513573108 0.00018589431989242075 -0.008420957527355034
545 -0.0020351877478496077 0.0009426687275253174 -0.006228429295226526
544 -0.0020667973250197086 0.0019499570488344428 -0.0033101116828860816
5 -0.0043307818360350005 -0.0038933500837321465 0.0021222166663292
6 -0.010369133439222529 -0.006047048902752588 0.004553749888700896
844 -0.002406791596444974 0.004266664579063254 -0.002793788298972768
354 -0.0015768022304730356 0.004799746229050793 0.0007314097474009709
453 0.0008723324069106132 -0.00045501190163556543 0.0014046826844665884
845 0.0005025469129756903 0.0010858791790847866 -0.004327098962557097
452 -0.0016641768554907818 -0.0008061305206917228 0.0005328157126256582
353 -0.0002541499151421515 0.0024909789248099994 8.353912207978995e-05
846 0.002688329156741727 -0.0013038407610288967 -0.005479073272795448
74 -0.0035302266094703627 0.004445148944835172 -0.0012338108758596204
27 0.0005482126634184779 0.0034990901232552604 -0.00037823329871500137
75 -0.005269036568011246 0.005742029053655479 -0.0006119148297658556
451 -0.005040343030165078 -0.001273479417274687 -0.0006276640943190447
25 0.007256790394137484 -0.007569206211296574 -5.596839603014798e-05
26 0.0034261601734080615 -0.0012491556531913392 -0.00023998320883499512
73 -0.0012158209602456875 0.0027189645303293255 -0.0020615722509541687
412 0.00017263400195658763 0.0011911526606342496 0.00033112189743460875
1063 -0.0024174761431169935 -0.004515433240483763 -0.0018074126718468145
1064 -0.0032978679864538005 -0.0011188503983781432 -0.0032418566817420443
1074 -0.002036340810435744 0.0018696868393193126 -0.003864552081426143
209 -0.0003228029982451242 -0.0004052898180413059 0.001946775220803588
466 3.3625114701570417e-05 0.002463936307100079 -0.0059717136712919075
175 0.0056998992144022854 -0.0004176404807727124 0.0033249432858608622
208 -0.0013817069210930373 -0.0011072935444914527 0.0024752031856483583
1065 -0.0015370842997801865 -0.007912016082589384 -0.00037296866195158447
414 0.0006540556169433692 0.001042077423627116 -0.000547088328297453
634 -0.009688426060559408 -0.0006783595612051753 0.0010319390552974228
210 0.00047275014379061323 0.00012212466994753819 0.0015497679770857958
176 0.003162340597441279 -0.0033373776742535574 0.002279336974116387
467 0.0007435215238727026 0.002131665105456273 -0.0029159650567593537
468 0.0012768657741395904 0.0018820301831823307 -0.0006201850911657413
413 0.0004475280646483354 0.001106029981735108 -0.00017034037458147356
334 -0.00033737424819358806 0.00550418440087856 -0.001254073917314684
1082 0.0012671531579384518 -0.005513356650951825 0.003904439612046169
1081 0.0015622386463414453 -0.00043494290762266595 0.0020429339546503525
1083 0.0018573241347444387 0.004643470835706493 0.00018142829725453584
240 0.00411184114386733 -0.006892061087969355 -0.004229857718305625
308 0.0004587064337698841 -0.0003985209064161493 -0.00046821224342164284
751 -0.0032989208041065672 0.004390387530625165 0.0035963260037622244
307 0.0059781029845071484 0.0036461324797551586 0.006066176746088234
239 0.004340509722565717 -0.005013221963995414 -0.0026880249399459898
726 -0.0033190745979776773 -0.004068383867098531 0.0009013427937972915
309 -0.0036880090267515657 -0.003437263742650054 -0.005377490205020958
484 0.006134299153046407 0.0009940154585190656 -0.002141865516206196
238 0.004644874122907556 -0.002512433501661913 -0.0006358015357335114
741 0.003689746243886816 -0.002348313054368752 -0.0018939043444298057
739 -0.0002307480588335973 -0.0017404921376411517 0.0003239806552791525
740 0.002007873085470978 -0.0020875608108930927 -0.0009424423701386471
702 -0.004629338463521395 0.0013813516300582264 -0.0025702269313661215
701 0.00042943235820866877 0.0029835282874149456 0.0001189979781084506
700 0.007162800608393907 0.005116071115703086 0.0036984330347989017
172 -0.0008268738517156538 -0.0020528488394837468 0.009004484344931299
173 -0.0023843972204816 0.000825411953460939 0.001339700547319877
174 -0.003554562504677833 0.00298784554919926 -0.0044188415655609286
670 0.003853215036061312 0.003051885109898252 0.0021557325910123775
671 0.004309987129811576 -0.0031514521657080136 0.000331813647938289
674 0.0017002784702487988 0.0024027934321370382 -0.0010806062678056008
675 0.0014853907024521174 0.002843828643438456 -0.003434603821932408
673 0.0019863002182236313 0.0018157629866710242 0.002052631617549005
621 0.001656758370202815 -0.0011556718836243797 -0.0009757916900278699
672 0.004653159410635649 -0.007812011404588814 -0.001038494285267384
205 -0.0005920737208313255 0.003202018900904105 -0.0003667713134098964
570 -0.0016576779845045425 -0.0016214368373727664 0.002862185475124084
206 -0.0007201552316614324 0.001548997666043353 0.0004488944907205611
568 -0.0006600283561344619 0.0008249875415167016 0.008031565255489169
569 -0.0012296911027751443 -0.000571932571011963 0.0050798244836084685
380 -0.0013550168977774799 -0.0022243952856863137 0.001502346018887103
113 -8.310956174510534e-06 -0.0009001892182455241 -0.0036763238707004844
112 -0.004187488033200209 -0.003725359575639405 -0.011907523006313989
207 -0.0008163827044084682 0.0003070849590732993 0.0010617031500575415
381 -0.001304015707914169 -0.002565493467153005 0.002121056339070797
103 0.003291006471258043 2.258739515129571e-07 0.0013566540704192036
104 0.0009933252993307223 0.0003293586625787062 -0.0008838208970013034
105 -0.0007329195811367542 0.000576635699229131 -0.002567086830316579
114 0.003131499354292188 0.0012223576022120854 0.0025077653500169403
957 0.0006308768813763798 0.00544951975602666 0.002442856648211734
779 0.00017516001814487124 0.0013307960932837594 0.001872801797359575
486 0.0027890486479479285 0.0035452599208138365 -0.002419585134393822
485 0.0042241449899571735 0.002450788343922827 -0.0023004447568472594
956 0.0011639408904193923 0.0023908470086197414 0.0019215525768583124
955 0.0018734642905285316 -0.0016803336577645954 0.0012276819892314697
145 -0.0013769422665945938 -0.001729750782352461 -0.00033971228578055313
146 -0.0016977845530181264 -0.00014325971851072465 0.001096426336903523
780 -0.0014568046281088166 -0.001338382442481877 0.005495939974155676
147 -0.0019388329461298304 0.0010486689573755588 0.002175395419010971
183 0.006098663035720781 -0.002607848067739272 7.994535512535341e-05
182 0.0044693127781000146 -0.002512746094242339 0.0001844822214635664
295 0.003578213609212441 -0.0039484681703632635 -0.0041885314485044815
300 0.004120197908126215 0.0008718507740358089 0.0036372968708582604
299 0.0009490283389092165 0.003976326966698769 0.0018018719118766107
1044 -0.0027338403567204175 -0.00115139142151763 -0.002332995426663884
489 -0.0070234748237409175 -0.0012176025664210914 -0.000623607051162958
298 -0.0032718888059431435 0.008108473325126559 -0.0006411310585916214
10 -0.0005052222496725839 -0.0022190751365141993 0.0004007254559523187
11 -0.0038835362592853544 -0.00030504858185647705 0.00034922998240681833
12 -0.006421659187286644 0.001132957082909101 0.0003105415000093165
488 -0.005287740204641781 -0.003867003727863293 -0.0004151616934337782
1043 -0.0027536686131018266 0.0003462919443049908 -0.0007085099770608909
487 -0.0029774279199290235 -0.0073934322400681304 -0.00013771497700945125
84 -0.0010830183336779239 0.000894167904095149 0.003164249741927275
1042 -0.0027437544849111223 -0.00040254973860632013 -0.0015207527018623885
617 -0.00272409391290419 -0.0013412166545793522 -0.003615882873917731
510 0.001166617923761782 -0.006460806134304392 0.00011690087020822283
931 -0.0031564317946278673 -0.0007595163952093717 0.002479882681128755
618 -0.004551647889860554 -0.0003097936083634213 -0.0010858346899309873
616 -0.0002915674440080694 -0.002714070147381898 -0.006983449168938973
933 -0.0004044021006696598 -0.0002977971170770358 0.005895852307812591
932 -0.001585009574125218 -0.0004958724618301346 0.004430417803521456
83 -0.002344556252060153 0.0005110742708044751 0.0023089417000916736
508 0.00323140220627039 0.0007952592576324297 0.010353845573897708
509 0.002052400428345562 -0.003347989056636279 0.004508500804271528
513 -6.622803303420198e-05 -0.0062254359644905955 0.0005748274914269829
512 7.863168064293533e-06 -0.001176654937857105 0.003671563602135673
801 -0.0006608963577338582 0.001494175187093976 -0.0032224747847053475
800 -0.0018693019005872533 0.0003332601560836812 -0.0034779950204549227
799 -0.00347772414431605 -0.0012119508618556839 -0.0038180997421959247
277 0.011650933788929507 0.0017960626245548147 0.0013415382271080361
667 -0.007254283334269029 -0.00122613439823131 0.00019596681782655135
511 0.00010648066995857197 0.005543416610125234 0.007793407690719378
278 0.005330369864165914 -0.0024246185464681094 -0.00026168371572950146
279 0.0005817383960156318 -0.005595610828853501 -0.0014661822792769348
668 -0.0028411874959664487 0.0006268956536859627 0.00015697783167807522
141 -0.0024573042304101406 -0.000801082532416572 0.0016656587997264383
345 -0.00011942409941677052 -0.0011755223033080037 -0.005129766856635556
344 0.0006150002658112445 -0.0014231105375383391 -0.0035876251495990967
343 0.0015925400432106763 -0.0017526575390203758 -0.0015349905525064917
233 -0.000299816874233196 0.0017643081794674873 0.0038245177456015626
887 -0.0006100492756126914 0.0022880812833710466 -0.0038357286551038974
886 -0.002116233153316129 -0.0032499222365738947 -0.004635018129396196
888 0.0005215447156229502 0.006448776135693356 -0.003235223511106371
927 0.0009611758245101738 -0.0032437268248819576 -0.003845824058186834
232 0.0020027755317588553 0.00021552185969658344 -0.0013574464723826226
234 -0.0020297515584752714 0.0029279093301005504 0.007717720732749425
926 -0.00020108810124033142 -0.0015179804569931368 -0.0026447527344250106
925 -0.0017480945365521523 0.0007790371804733901 -0.0010460925454939748
199 0.0022024922865531513 0.0077690353286594535 0.00020760244358290146
636 -0.0006455965594757817 -0.0007975335831553996 0.004485997295532531
778 0.0023473515092690645 0.004883548854804188 -0.0029496984552471648
336 -0.00030606573262928146 0.0009598003537603975 0.0015378788876604088
723 -0.005935517181898286 0.0036506209054991577 0.0033956509689445696
722 -0.0005360523178996863 0.0012798139837128175 0.001559521474326783
335 -0.0003194969348939834 0.0029093192052678934 0.0003401445920147998
121 -0.00048313024373477587 0.0046557272576921525 0.001105220819477492
745 -0.002687786419991174 -0.0028813603483689425 -0.0006154801137818843
746 -0.004392881860842249 0.0007542060210193287 -0.0014440257162425876
721 0.006650789419834001 -0.0018757976494341144 -0.0008844192531679196
635 -0.004524926827460118 -0.0007464085021778669 0.0030042229596215185
960 -0.0023558418029641292 0.003485299653914889 -0.004730576667982196
688 -3.867478715333279e-05 0.0007317016452578287 -0.00782253642875877
640 -0.0014846441625797906 0.0007969287024402005 0.0010851285680120747
724 0.004765072294082443 0.00463532715902857 0.0028534593624578502
641 -0.0015238957582196355 -0.00031162596974465887 0.001166708636482749
958 -0.0025686572184724413 -0.0012859532953867529 0.004422859052781499
642 -0.001553385431047752 -0.0011444816552757487 0.001227999635976624
959 -0.0024471385904105913 0.001438455136917485 -0.0008037968648959558
119 -0.0022409671489657824 -0.0016451457890461125 0.002289641116420915
689 0.0028457199832783403 0.0027071537331639427 -0.0005574817290490007
225 -0.0013937522863272584 -0.0003414992381754727 4.9821564197443345e-05
690 0.005012762028336407 0.004191308321285619 0.004900744431706985
725 0.00014898545174925435 -0.0003345337902616665 0.0017387913922178593
374 -8.469221911120244e-05 0.001308420334798369 -0.0016154757985680059
373 -0.0013384512054945732 -0.00046799662934772545 -0.0033718927037546904
765 0.002846669031166314 -0.002198949487202143 -0.0007937511441984298
388 0.0025993209179651852 0.001601749804993205 0.0016513731645165519
390 0.0012234098181093363 -0.00509759076518283 0.0030626047130441715
630 0.0077745571054904416 -0.005397744190428325 0.0035365883563674753
389 0.0018136690478213185 -0.0022236059525414954 0.002457193181102584
592 -0.003240540034473086 -0.0011196539613892373 0.002191307361141759
629 0.0036004565144716334 -0.0032856328982724357 -0.00020646300242325956
593 -0.0033566060851148763 0.0016007290249164473 0.0010219662634120964
266 0.0018609095550935308 0.0008861880772092222 0.0010100731261530973
267 0.0015241747911661717 0.0007813945648494193 0.0009337319077258113
763 0.0009809967960448286 -0.0024473802208194516 -0.0012879652578023455
764 0.0020463046351575764 -0.0023055250744454586 -0.0010057666167381874
197 0.0007152833267282944 -0.0006711883500123817 -0.0013718121100828196
196 0.002583195647934208 -0.002398767674998481 0.00303740411658069
55 -0.0015370784741195612 0.0018582817619959586 0.0070555927701933
437 -0.0011151093947675368 0.0029818921444862275 -0.0007723980320187827
436 4.637676706989902e-05 -0.00031056737838248494 0.0008937814221639198
198 -0.0006880767743335489 0.0006267397532401605 -0.004684450534920272
180 0.0075428457769637905 0.003443036978027566 -0.0026676840024580373
178 -0.0037469092790233856 0.001036941533665643 -0.0009308298998099403
57 0.004407274225287939 -0.005263463595717061 0.003489563570772466
7 0.0007632960675676842 0.0033642829909502157 0.0018991384779723534
56 0.0018571755700359975 -0.0022082691652854838 0.005019372908455046
8 0.001779285767635509 9.31554887241545e-05 0.0009561149262820481
9 0.0025425975098293235 -0.002364438355480755 0.00024762255660303143
297 -0.00016567713505534877 0.0009328521964639036 -0.0025263292795105943
179 0.0026995952764902386 0.0024108336301867208 -0.0019225819643550089
296 0.001440433948043589 -0.001161210712108228 -0.0032394059979110124
829 -0.0042309674387788695 -0.0028501172830708646 0.006768836000898873
804 -0.0003666383093855305 -0.005016237946950176 0.0011344588713678382
361 -0.0009298819044566697 -6.305649568296985e-05 -0.0004054092862079762
791 -0.0027262364544987957 0.0041663816228447 -0.004577725376423576
312 -0.000428479188666192 -0.002091741404953151 0.0006662184037140324
310 0.0017581424419962554 0.003863323230806074 -0.005384191036155618
118 -0.0004028979535461853 -0.002859358745469394 0.00482235038515815
224 -0.0005170990077578269 -0.001501215474732795 0.0030829986035303073
311 0.0005095709509987864 0.00046295261936032305 -0.0019293780819845958
792 -0.0009686338058587352 0.0015200977620716677 -0.006638319563292623
181 0.0023006011128139446 -0.0023861626550156496 0.0003236237721643829
41 -0.0024057863896510467 -0.0026789508605960183 0.003789006110447317
42 -0.004613385050769687 -0.0038149789852067514 0.0014222369229977302
85 -0.00272150021407226 0.00017759999746981754 -0.004701179072765352
86 0.0017774926904457545 0.0018003563097372056 0.0004194174913109983
87 0.005157580216762204 0.003019531019667963 0.004266515039776148
223 0.0006497515099577573 -0.0030448308630631974 0.007120243755278463
490 0.0013452370785706764 0.009432623623740507 0.002200484256403115
848 -0.0004345730165557766 0.001879054144707514 -0.0003186620750215939
383 0.0006801423037220899 0.002376934353427938 -0.0006264812134987417
120 -0.003621906148381674 -0.0007329091717852407 0.00038681993205144215
382 -0.0008224591974415888 0.0012235034675695748 -0.000860831774575236
610 0.004163855332788035 -0.002835307695319496 -0.001947342157471115
611 0.004418757692651319 0.0023263356037569803 -0.00449488435323677
507 -0.004452274703178308 0.0008369056006262252 0.0021891900846367765
612 0.004610265504574559 0.006204271510920254 -0.006408849496419152
574 -0.002379033149966709 0.0011253180105682237 -0.0007773931612361465
506 -0.0033069641593137505 0.0005571731847630411 0.0005588339448377318
847 -0.0004045826607911787 0.0012790988155777158 -0.0007043691878777644
575 -0.0031922929845235115 -0.0013752814773728215 -0.0023154661613090806
833 -0.0019898988141309132 0.001058173157848774 0.0014054578520254182
834 -0.002286538876897692 0.0011691158814125082 0.0018955649019240027
474 -0.0003856554180637574 0.002025802805254444 0.007226121195567995
832 -0.001595062429808664 0.0009105052284726673 0.0007531113897576372
491 0.0012977196736529612 0.00100637632114622 -0.0002516030269067682
597 -0.0030007283437727284 0.0023194260859381397 -0.003787121320459637
628 -0.0019553904260374228 -0.00047435252669067235 -0.005188571120433357
669 0.0004743656760569895 0.0020190747251588722 0.0001276854570197689
862 -0.0005712747404006302 0.0016507720248417927 0.002492261918003062
102 0.002940425251829624 0.0012787279030367247 -0.005612858052280375
101 0.005601024594586514 0.00134579954176352 -0.004761839216935865
100 0.009142358205516173 0.00143507380592883 -0.0036291088742992626
863 0.00275679470319475 0.002929470923609636 -4.860057637529492e-06
864 0.0052571689539998535 0.0038901557456059947 -0.0018809445549207433
766 -0.0010929764415121392 -0.004001397656298905 -0.000683930866056043
992 -0.00211322614019903 0.004291665880354003 0.004947993756162842
767 -0.0025810196986543535 -0.0004272263413911806 -0.0025515796081824723
747 -0.005673917851143995 0.0034856023128259726 -0.002066510951338069
905 -0.0028539306273138946 -0.00023558151090495802 -0.0011832954039014882
691 -0.008034486070402691 0.005115777125803364 -0.0019036476830964493
200 -0.001453169188391721 0.002823657050637376 -0.00046611871544673014
201 -0.004199662906905501 -0.0008917992270714107 -0.0009722845472631425
803 -0.0009040264308336761 -0.0056339054278710865 -0.000519339111976991
802 -0.0016193053478865199 -0.0064560384621132625 -0.002720591397500781
945 0.0013008338171140083 0.00325515556787241 -0.0016812763727114591
906 -0.003857935318146673 -0.0020890759664076307 -0.0017944044010888896
881 -0.004510438895935301 0.00025363517700829305 0.0006811030947861077
993 0.0003876654223620642 -0.0012537067407381447 0.0027699479343398503
831 0.00337191457480867 -0.0014336944398192922 -0.00429998985153285
991 -0.0008627803589184804 0.0015189795698079247 0.0038589708452513457
830 0.00011031483816767272 -0.0020413330121745207 0.00044848308553184165
880 -0.005587192642405222 -0.0019291106650437095 0.003992007586671675
692 -0.006269402280782602 0.002296051350830373 -0.0037284191579150276
944 0.0025794473746333976 0.002837740847171305 -0.0005110336013917115
943 0.004281318488358425 0.002282149948398873 0.001046592904945728
444 0.0004720700313256244 0.007102324050784268 -0.0015542909027652636
492 0.0012620199090491962 -0.005324252334114577 -0.0020938530183285506
136 -0.004966382573893383 0.004379783143908845 0.0016146075785330506
794 -0.0005245103452857283 -0.003949185241952529 0.004183289886734588
795 -0.002364771600598309 -0.003119913358948535 0.005522250511102274
773 0.0013890857818748053 0.00017686097258552133 -0.0036226141694223
505 -0.001782523158837153 0.00018484136071005513 -0.0016112165783174392
138 0.0019657473507151634 0.0007678233344579049 -0.00250534248692151
716 0.0035926417418189723 -0.0016387290976355585 0.0006405568892301212
758 -0.002761803947830877 -0.0016334409376938634 -0.00047226820964704546
793 0.0019249298735399883 -0.0050529697707564535 0.0024010951058130365
442 -0.0006003608150883203 -0.0016752760818081018 -0.003765805186866077
759 -0.001894450450242108 -0.0010044009128958556 0.0005175866854223509
772 0.0017948160785156006 -0.0007719969335029872 -0.00339833598483791
443 1.2002367513639107e-05 0.0033367759034318937 -0.002503019870768468
774 0.0010842611369310416 0.0008897366851468241 -0.0037911140782301823
137 -0.0010081029728933166 0.0023173366824500263 -0.0007379037677035271

Bonds

1 1 214 215
2 2 215 216
3 1 736 737
4 2 464 465
5 2 272 273
6 1 271 272
7 2 776 777
8 1 376 377
9 2 356 357
10 2 626 627
11 1 787 788
12 2 302 303
13 1 676 677
14 2 677 678
15 2 788 789
16 1 661 662
17 2 614 615
18 1 301 302
19 2 662 663
20 1 625 626
21 2 2 3
22 1 814 815
23 2 815 816
24 1 1 2
25 1 523 524
26 2 524 525
27 1 130 131
28 1 898 899
29 2 476 477
30 1 475 476
31 2 899 900
32 2 728 729
33 2 164 165
34 1 319 320
35 1 439 440
36 2 440 441
37 2 149 150
38 1 148 149
39 1 163 164
40 1 355 356
41 2 17 18
42 1 154 155
43 1 16 17
44 2 665 666
45 2 155 156
46 1 664 665
47 1 556 557
48 2 518 519
49 1 586 587
50 2 587 588
51 1 517 518
52 2 248 249
53 2 557 558
54 1 292 293
55 2 293 294
56 3 1066 1067
57 3 1066 1068
58 1 424 425
59 2 191 192
60 1 190 191
61 2 425 426
62 2 305 306
63 2 53 54
64 1 22 23
65 2 23 24
66 2 131 132
67 3 1069 1070
68 3 1069 1071
69 2 47 48
70 1 304 305
71 1 952 953
72 1 46 47
73 2 125 126
74 1 247 248
75 1 679 680
76 2 710 711
77 2 680 681
78 1 709 710
79 1 553 554
80 2 554 555
81 1 694 695
82 2 695 696
83 1 643 644
84 2 263 264
85 1 658 659
86 2 659 660
87 2 644 645
88 1 283 284
89 1 262 263
90 2 566 567
91 1 565 566
92 1 316 317
93 2 317 318
94 1 652 653
95 1 613 614
96 2 494 495
97 1 499 500
98 2 500 501
99 1 493 494
100 1 331 332
101 2 368 369
102 1 727 728
103 2 866 867
104 2 503 504
105 1 502 503
106 1 865 866
107 3 976 977
108 3 976 978
109 1 433 434
110 1 514 515
111 2 284 285
112 1 418 419
113 2 419 420
114 2 431 432
115 1 286 287
116 1 430 431
117 1 280 281
118 1 28 29
119 2 287 288
120 2 29 30
121 1 883 884
122 2 563 564
123 2 653 654
124 2 761 762
125 1 760 761
126 1 529 530
127 2 530 531
128 2 203 204
129 1 202 203
130 1 115 116
131 2 116 117
132 2 884 885
133 2 857 858
134 2 332 333
135 1 133 134
136 2 608 609
137 1 607 608
138 1 58 59
139 2 59 60
140 2 185 186
141 1 184 185
142 1 52 53
143 2 134 135
144 2 158 159
145 1 784 785
146 1 19 20
147 1 253 254
148 2 254 255
149 2 893 894
150 1 313 314
151 2 314 315
152 1 892 893
153 1 157 158
154 1 895 896
155 1 937 938
156 2 242 243
157 1 241 242
158 2 896 897
159 2 68 69
160 2 743 744
161 3 1087 1088
162 3 1087 1089
163 1 742 743
164 2 938 939
165 1 541 542
166 1 67 68
167 2 698 699
168 3 1075 1076
169 3 1075 1077
170 1 79 80
171 2 80 81
172 1 697 698
173 1 97 98
174 2 98 99
175 1 76 77
176 2 935 936
177 1 913 914
178 2 914 915
179 1 367 368
180 1 13 14
181 2 428 429
182 1 427 428
183 2 140 141
184 1 139 140
185 1 37 38
186 1 655 656
187 2 656 657
188 2 515 516
189 1 685 686
190 2 686 687
191 2 434 435
192 2 623 624
193 1 622 623
194 1 922 923
195 1 532 533
196 2 533 534
197 1 226 227
198 2 542 543
199 2 227 228
200 2 875 876
201 2 650 651
202 1 649 650
203 1 127 128
204 2 128 129
205 2 167 168
206 1 166 167
207 2 122 123
208 2 281 282
209 1 43 44
210 2 44 45
211 1 481 482
212 2 77 78
213 1 934 935
214 2 482 483
215 2 752 753
216 2 590 591
217 1 274 275
218 1 589 590
219 2 620 621
220 1 619 620
221 2 275 276
222 2 755 756
223 1 754 755
224 2 497 498
225 1 496 497
226 2 647 648
227 1 646 647
228 2 89 90
229 2 461 462
230 1 88 89
231 1 379 380
232 2 890 891
233 1 460 461
234 1 385 386
235 2 386 387
236 2 929 930
237 1 928 929
238 1 400 401
239 2 401 402
240 2 62 63
241 1 61 62
242 1 217 218
243 2 218 219
244 3 1090 1091
245 3 1090 1092
246 2 836 837
247 1 835 836
248 2 107 108
249 1 106 107
250 2 527 528
251 1 526 527
252 2 947 948
253 1 463 464
254 1 775 776
255 1 946 947
256 1 580 581
257 2 14 15
258 2 188 189
259 1 187 188
260 2 38 39
261 1 397 398
262 2 398 399
263 2 260 261
264 2 95 96
265 2 110 111
266 2 869 870
267 1 94 95
268 1 868 869
269 2 923 924
270 1 637 638
271 2 65 66
272 1 64 65
273 2 827 828
274 2 407 408
275 1 826 827
276 2 320 321
277 1 874 875
278 2 71 72
279 1 706 707
280 2 707 708
281 1 349 350
282 1 70 71
283 1 715 716
284 1 838 839
285 1 403 404
286 2 347 348
287 3 1024 1025
288 3 1024 1026
289 1 346 347
290 2 404 405
291 2 839 840
292 2 581 582
293 1 598 599
294 1 259 260
295 1 109 110
296 1 244 245
297 2 245 246
298 2 602 603
299 1 445 446
300 1 601 602
301 2 446 447
302 2 854 855
303 2 92 93
304 1 91 92
305 1 406 407
306 1 853 854
307 1 796 797
308 2 416 417
309 1 415 416
310 2 638 639
311 3 967 968
312 3 967 969
313 1 889 890
314 2 842 843
315 1 841 842
316 2 797 798
317 2 818 819
318 1 817 818
319 1 790 791
320 2 362 363
321 2 350 351
322 1 229 230
323 1 250 251
324 2 704 705
325 2 599 600
326 1 703 704
327 2 230 231
328 2 251 252
329 2 395 396
330 1 394 395
331 2 458 459
332 2 824 825
333 1 919 920
334 2 851 852
335 1 850 851
336 2 152 153
337 1 151 152
338 1 235 236
339 1 823 824
340 1 733 734
341 2 734 735
342 2 221 222
343 1 391 392
344 2 392 393
345 1 265 266
346 1 220 221
347 1 904 905
348 1 820 821
349 2 551 552
350 1 535 536
351 2 536 537
352 2 719 720
353 1 718 719
354 2 953 954
355 2 821 822
356 1 124 125
357 1 550 551
358 2 236 237
359 2 329 330
360 1 328 329
361 2 323 324
362 3 1084 1085
363 3 1084 1086
364 1 322 323
365 1 40 41
366 1 907 908
367 1 457 458
368 1 160 161
369 2 749 750
370 1 748 749
371 2 365 366
372 1 364 365
373 3 1078 1079
374 3 1078 1080
375 2 737 738
376 1 901 902
377 1 472 473
378 2 473 474
379 2 809 810
380 2 161 162
381 2 902 903
382 1 682 683
383 2 683 684
384 3 1060 1061
385 3 1060 1062
386 1 808 809
387 1 409 410
388 1 325 326
389 2 326 327
390 2 410 411
391 1 256 257
392 2 257 258
393 1 916 917
394 1 4 5
395 2 917 918
396 1 757 758
397 3 1072 1073
398 3 1072 1074
399 2 170 171
400 2 596 597
401 1 604 605
402 1 595 596
403 2 605 606
404 2 422 423
405 2 908 909
406 1 169 170
407 1 421 422
408 1 562 563
409 2 785 786
410 2 920 921
411 1 559 560
412 2 560 561
413 2 449 450
414 1 448 449
415 2 32 33
416 1 31 32
417 2 812 813
418 1 289 290
419 1 811 812
420 1 454 455
421 2 455 456
422 2 539 540
423 1 856 857
424 2 290 291
425 2 911 912
426 1 910 911
427 1 34 35
428 1 871 872
429 1 538 539
430 2 35 36
431 2 872 873
432 2 20 21
433 2 521 522
434 1 520 521
435 2 578 579
436 1 358 359
437 2 632 633
438 2 359 360
439 1 577 578
440 1 631 632
441 1 877 878
442 2 572 573
443 2 806 807
444 1 859 860
445 2 860 861
446 2 878 879
447 1 730 731
448 1 805 806
449 2 731 732
450 1 571 572
451 2 377 378
452 1 142 143
453 2 470 471
454 2 950 951
455 1 469 470
456 2 479 480
457 2 143 144
458 2 782 783
459 1 781 782
460 1 478 479
461 1 370 371
462 1 949 950
463 2 269 270
464 1 268 269
465 1 547 548
466 3 1027 1028
467 3 1027 1029
468 2 548 549
469 1 82 83
470 1 712 713
471 2 713 714
472 2 371 372
473 1 352 353
474 2 545 546
475 1 544 545
476 2 5 6
477 1 844 845
478 2 845 846
479 2 452 453
480 2 353 354
481 2 74 75
482 1 451 452
483 1 25 26
484 2 26 27
485 1 73 74
486 1 412 413
487 3 1063 1064
488 3 1063 1065
489 2 209 210
490 1 466 467
491 1 175 176
492 1 208 209
493 1 634 635
494 2 176 177
495 2 467 468
496 2 413 414
497 1 334 335
498 3 1081 1082
499 3 1081 1083
500 2 308 309
501 1 751 752
502 1 307 308
503 2 239 240
504 1 484 485
505 1 238 239
506 1 739 740
507 2 740 741
508 2 701 702
509 1 700 701
510 1 172 173
511 2 173 174
512 1 670 671
513 2 671 672
514 2 674 675
515 1 673 674
516 1 205 206
517 2 206 207
518 1 568 569
519 2 569 570
520 2 380 381
521 2 113 114
522 1 112 113
523 1 103 104
524 2 104 105
525 2 779 780
526 2 485 486
527 2 956 957
528 1 955 956
529 1 145 146
530 2 146 147
531 2 182 183
532 1 295 296
533 2 299 300
534 1 298 299
535 1 10 11
536 2 11 12
537 2 488 489
538 1 487 488
539 3 1042 1043
540 3 1042 1044
541 2 617 618
542 1 931 932
543 1 616 617
544 2 932 933
545 2 83 84
546 1 508 509
547 2 509 510
548 2 512 513
549 2 800 801
550 1 799 800
551 1 277 278
552 1 667 668
553 1 511 512
554 2 278 279
555 2 668 669
556 2 344 345
557 1 343 344
558 2 233 234
559 2 887 888
560 1 886 887
561 1 232 233
562 2 926 927
563 1 925 926
564 1 199 200
565 1 778 779
566 2 722 723
567 2 335 336
568 1 121 122
569 1 745 746
570 2 746 747
571 1 721 722
572 2 635 636
573 1 688 689
574 1 640 641
575 1 724 725
576 2 641 642
577 1 958 959
578 2 959 960
579 2 119 120
580 2 689 690
581 2 725 726
582 2 374 375
583 1 373 374
584 1 388 389
585 2 389 390
586 1 592 593
587 2 629 630
588 2 593 594
589 2 266 267
590 1 763 764
591 2 764 765
592 2 197 198
593 1 196 197
594 1 55 56
595 2 437 438
596 1 436 437
597 1 178 179
598 1 7 8
599 2 56 57
600 2 8 9
601 2 179 180
602 2 296 297
603 1 829 830
604 1 361 362
605 2 791 792
606 1 310 311
607 1 118 119
608 2 224 225
609 2 311 312
610 1 181 182
611 2 41 42
612 1 85 86
613 2 86 87
614 1 223 224
615 1 490 491
616 2 848 849
617 2 383 384
618 1 382 383
619 1 610 611
620 2 611 612
621 1 574 575
622 2 506 507
623 1 847 848
624 2 575 576
625 2 833 834
626 1 832 833
627 2 491 492
628 1 628 629
629 1 862 863
630 2 101 102
631 1 100 101
632 2 863 864
633 1 766 767
634 2 767 768
635 2 905 906
636 1 691 692
637 2 200 201
638 2 803 804
639 1 802 803
640 2 881 882
641 3 991 992
642 3 991 993
643 2 830 831
644 1 880 881
645 2 692 693
646 2 944 945
647 1 943 944
648 1 136 137
649 2 794 795
650 2 773 774
651 1 505 506
652 2 716 717
653 2 758 759
654 1 793 794
655 1 442 443
656 1 772 773
657 2 443 444
658 2 137 138

Angles

1 1 214 215 216
2 1 463 464 465
3 1 271 272 273
4 1 775 776 777
5 1 355 356 357
6 1 625 626 627
7 1 301 302 303
8 1 676 677 678
9 1 787 788 789
10 1 613 614 615
11 1 661 662 663
12 1 1 2 3
13 1 814 815 816
14 1 523 524 525
15 1 475 476 477
16 1 898 899 900
17 1 727 728 729
18 1 163 164 165
19 1 439 440 441
20 1 148 149 150
21 1 16 17 18
22 1 664 665 666
23 1 154 155 156
24 1 517 518 519
25 1 586 587 588
26 1 247 248 249
27 1 556 557 558
28 1 292 293 294
29 2 1067 1066 1068
30 1 190 191 192
31 1 424 425 426
32 1 304 305 306
33 1 52 53 54
34 1 22 23 24
35 1 130 131 132
36 2 1070 1069 1071
37 1 46 47 48
38 1 124 125 126
39 1 709 710 711
40 1 679 680 681
41 1 553 554 555
42 1 694 695 696
43 1 262 263 264
44 1 658 659 660
45 1 643 644 645
46 1 565 566 567
47 1 316 317 318
48 1 493 494 495
49 1 499 500 501
50 1 367 368 369
51 1 865 866 867
52 1 502 503 504
53 2 977 976 978
54 1 283 284 285
55 1 418 419 420
56 1 430 431 432
57 1 286 287 288
58 1 28 29 30
59 1 562 563 564
60 1 652 653 654
61 1 760 761 762
62 1 529 530 531
63 1 202 203 204
64 1 115 116 117
65 1 883 884 885
66 1 856 857 858
67 1 331 332 333
68 1 607 608 609
69 1 58 59 60
70 1 184 185 186
71 1 133 134 135
72 1 157 158 159
73 1 253 254 255
74 1 892 893 894
75 1 313 314 315
76 1 241 242 243
77 1 895 896 897
78 1 67 68 69
79 1 742 743 744
80 2 1088 1087 1089
81 1 937 938 939
82 1 697 698 699
83 2 1076 1075 1077
84 1 79 80 81
85 1 97 98 99
86 1 934 935 936
87 1 913 914 915
88 1 427 428 429
89 1 139 140 141
90 1 655 656 657
91 1 514 515 516
92 1 685 686 687
93 1 433 434 435
94 1 622 623 624
95 1 532 533 534
96 1 541 542 543
97 1 226 227 228
98 1 874 875 876
99 1 649 650 651
100 1 127 128 129
101 1 166 167 168
102 1 121 122 123
103 1 280 281 282
104 1 43 44 45
105 1 76 77 78
106 1 481 482 483
107 1 751 752 753
108 1 589 590 591
109 1 619 620 621
110 1 274 275 276
111 1 754 755 756
112 1 496 497 498
113 1 646 647 648
114 1 88 89 90
115 1 460 461 462
116 1 889 890 891
117 1 385 386 387
118 1 928 929 930
119 1 400 401 402
120 1 61 62 63
121 1 217 218 219
122 2 1091 1090 1092
123 1 835 836 837
124 1 106 107 108
125 1 526 527 528
126 1 946 947 948
127 1 13 14 15
128 1 187 188 189
129 1 37 38 39
130 1 397 398 399
131 1 259 260 261
132 1 94 95 96
133 1 109 110 111
134 1 868 869 870
135 1 922 923 924
136 1 64 65 66
137 1 826 827 828
138 1 406 407 408
139 1 319 320 321
140 1 70 71 72
141 1 706 707 708
142 1 346 347 348
143 2 1025 1024 1026
144 1 403 404 405
145 1 838 839 840
146 1 580 581 582
147 1 244 245 246
148 1 601 602 603
149 1 445 446 447
150 1 853 854 855
151 1 91 92 93
152 1 415 416 417
153 1 637 638 639
154 2 968 967 969
155 1 841 842 843
156 1 796 797 798
157 1 817 818 819
158 1 361 362 363
159 1 349 350 351
160 1 703 704 705
161 1 598 599 600
162 1 229 230 231
163 1 250 251 252
164 1 394 395 396
165 1 457 458 459
166 1 823 824 825
167 1 850 851 852
168 1 151 152 153
169 1 733 734 735
170 1 220 221 222
171 1 391 392 393
172 1 550 551 552
173 1 535 536 537
174 1 718 719 720
175 1 952 953 954
176 1 820 821 822
177 1 235 236 237
178 1 328 329 330
179 1 322 323 324
180 2 1085 1084 1086
181 1 748 749 750
182 1 364 365 366
183 2 1079 1078 1080
184 1 736 737 738
185 1 472 473 474
186 1 808 809 810
187 1 160 161 162
188 1 901 902 903
189 1 682 683 684
190 2 1061 1060 1062
191 1 325 326 327
192 1 409 410 411
193 1 256 257 258
194 1 916 917 918
195 2 1073 1072 1074
196 1 169 170 171
197 1 595 596 597
198 1 604 605 606
199 1 421 422 423
200 1 907 908 909
201 1 784 785 786
202 1 919 920 921
203 1 559 560 561
204 1 448 449 450
205 1 31 32 33
206 1 811 812 813
207 1 454 455 456
208 1 538 539 540
209 1 289 290 291
210 1 910 911 912
211 1 34 35 36
212 1 871 872 873
213 1 19 20 21
214 1 520 521 522
215 1 577 578 579
216 1 631 632 633
217 1 358 359 360
218 1 571 572 573
219 1 805 806 807
220 1 859 860 861
221 1 877 878 879
222 1 730 731 732
223 1 376 377 378
224 1 469 470 471
225 1 949 950 951
226 1 478 479 480
227 1 142 143 144
228 1 781 782 783
229 1 268 269 270
230 2 1028 1027 1029
231 1 547 548 549
232 1 712 713 714
233 1 370 371 372
234 1 544 545 546
235 1 4 5 6
236 1 844 845 846
237 1 451 452 453
238 1 352 353 354
239 1 73 74 75
240 1 25 26 27
241 2 1064 1063 1065
242 1 208 209 210
243 1 175 176 177
244 1 466 467 468
245 1 412 413 414
246 2 1082 1081 1083
247 1 307 308 309
248 1 238 239 240
249 1 739 740 741
250 1 700 701 702
251 1 172 173 174
252 1 670 671 672
253 1 673 674 675
254 1 205 206 207
255 1 568 569 570
256 1 379 380 381
257 1 112 113 114
258 1 103 104 105
259 1 778 779 780
260 1 484 485 486
261 1 955 956 957
262 1 145 146 147
263 1 181 182 183
264 1 298 299 300
265 1 10 11 12
266 1 487 488 489
267 2 1043 1042 1044
268 1 616 617 618
269 1 931 932 933
270 1 82 83 84
271 1 508 509 510
272 1 511 512 513
273 1 799 800 801
274 1 277 278 279
275 1 667 668 669
276 1 343 344 345
277 1 232 233 234
278 1 886 887 888
279 1 925 926 927
280 1 721 722 723
281 1 334 335 336
282 1 745 746 747
283 1 634 635 636
284 1 640 641 642
285 1 958 959 960
286 1 118 119 120
287 1 688 689 690
288 1 724 725 726
289 1 373 374 375
290 1 388 389 390
291 1 628 629 630
292 1 592 593 594
293 1 265 266 267
294 1 763 764 765
295 1 196 197 198
296 1 436 437 438
297 1 55 56 57
298 1 7 8 9
299 1 178 179 180
300 1 295 296 297
301 1 790 791 792
302 1 223 224 225
303 1 310 311 312
304 1 40 41 42
305 1 85 86 87
306 1 847 848 849
307 1 382 383 384
308 1 610 611 612
309 1 505 506 507
310 1 574 575 576
311 1 832 833 834
312 1 490 491 492
313 1 100 101 102
314 1 862 863 864
315 1 766 767 768
316 1 904 905 906
317 1 199 200 201
318 1 802 803 804
319 1 880 881 882
320 2 992 991 993
321 1 829 830 831
322 1 691 692 693
323 1 943 944 945
324 1 793 794 795
325 1 772 773 774
326 1 715 716 717
327 1 757 758 759
328 1 442 443 444
329 1 136 137 138
