LAMMPS data file via write_data, version 29 Aug 2024, timestep = 1000000, units = real

1020 atoms
5 atom types
680 bonds
3 bond types
340 angles
2 angle types

0 30 xlo xhi
0 30 ylo yhi
0 30 zlo zhi

Masses

1 15.035
2 12.0107
3 14.0067
4 12.0107
5 15.9994

Atoms # full

725 242 2 0.129 5.263012107020084 5.418447095809767 2.176371309906216 1 1 1
197 66 2 0.129 4.2650390891413235 3.320328522375097 6.9940577988838895 0 0 0
726 242 3 -0.398 5.378857661286058 5.38771017060644 1.0255958978529731 1 1 1
252 84 3 -0.398 1.9465547856062209 6.238713660551485 5.041882093418439 1 0 0
724 242 1 0.269 5.1088183701405665 5.4593588199352 3.708086205811145 1 1 1
198 66 3 -0.398 5.409844911875692 3.201000529624948 7.111656516479918 0 0 0
863 288 2 0.129 3.5407192731012223 1.1972018633276547 3.068763771478302 1 1 0
864 288 3 -0.398 4.162916842457442 1.9140852718274106 3.7302751948906128 1 1 0
223 75 1 0.269 0.779609547470522 4.728504611028867 2.659311674156495 0 0 0
862 288 1 0.269 2.7125565619442784 0.24300959963739754 2.188273199261402 1 1 0
224 75 2 0.129 0.13972721809076438 3.5872237337098474 1.8471364691584224 0 0 0
230 77 2 0.129 6.579534592643576 7.415362570043232 6.743188680659276 1 0 0
251 84 2 0.129 2.2236366150575053 7.329397131995107 5.310739350911971 1 0 0
349 117 1 0.269 0.016284348374519864 2.1109854391128255 5.275317057911136 1 0 0
196 66 1 0.269 2.7412698868846856 3.4791574842032973 6.837530551608277 0 0 0
274 92 1 0.269 7.528158052649798 2.0364245303684765 3.830112828304086 1 1 0
459 153 3 -0.398 10.17127503490628 3.430437628891377 5.524961420494555 0 1 0
77 26 2 0.129 12.515132185180526 0.3922503557938217 3.7898487132475145 0 1 -1
275 92 2 0.129 8.457420300366193 0.9196986231865935 3.3192362060189917 1 1 0
458 153 2 0.129 10.60806359636538 4.489301094825766 5.361642979749653 0 1 0
276 92 3 -0.398 9.155573820241429 0.08070389941423073 2.9354152631723376 1 1 0
211 71 1 0.269 8.932297407642373 5.090791318729576 0.20686671606139295 1 0 0
76 26 1 0.269 12.245269945368332 1.7265712052769913 3.0698749344477996 0 1 -1
212 71 2 0.129 10.096869354439795 4.823687449951349 1.1784775970292056 1 0 0
213 71 3 -0.398 10.971810745637596 4.623012660226408 1.908447590068009 1 0 0
457 153 1 0.269 11.189441629768154 5.898678568930314 5.144261476943127 0 1 0
30 10 3 -0.398 13.165063956999123 3.328742106073488 7.088101880485861 1 0 0
29 10 2 0.129 12.87232658744403 2.2171160640050367 7.219408297161349 1 0 0
1013 338 5 -0.35 14.878878061447786 5.826796280272378 6.279262469791091 0 0 0
121 41 1 0.269 14.73387520673607 5.139467639401092 0.10103538474090223 0 1 0
28 10 1 0.269 12.482684799099314 0.7375100961697572 7.394180882883258 1 0 0
332 111 2 0.129 8.729796147075144 0.11278726032908312 6.779606121127915 1 1 -1
180 60 3 -0.398 21.832280083776705 0.9371699458505667 0.3554438711783616 0 0 0
1012 338 4 0.7 15.474028547986626 4.837272902616229 6.389894216790459 0 0 0
1014 338 5 -0.35 16.069179034525465 3.8477495249600766 6.500525963789833 0 0 0
305 102 2 0.129 16.523062625206087 2.308113452490613 1.8324558968116111 1 0 0
304 102 1 0.269 17.82056661932436 2.8814215619423047 2.4319566865397757 1 0 0
179 60 2 0.129 22.12163216217378 1.8122263593135082 1.05487267240504 0 0 0
960 320 3 -0.398 21.746964986259123 2.338729969377975 5.021715042998019 0 0 1
524 175 2 0.129 16.637299056656843 6.9789857307744345 3.9934384342791045 0 -1 1
959 320 2 0.129 20.955913660480743 3.074408545122724 5.436038386747256 0 0 1
525 175 3 -0.398 17.062048358696508 5.92319185481889 3.7847848411853966 0 -1 1
958 320 1 0.269 19.90300178347235 4.05361771249257 5.987514574624375 0 0 1
692 231 2 0.129 20.109717760715487 6.598486929192817 1.979362667738765 0 0 1
693 231 3 -0.398 20.731490522832527 5.8373028928805075 2.589810450233169 0 0 1
306 102 3 -0.398 15.54824955949515 1.8773878144155436 1.3820517320612957 1 0 0
609 203 3 -0.398 21.902541616750867 6.237060662719261 6.804395634636494 0 0 0
608 203 2 0.129 22.478020426251753 6.213180647225422 5.800950128056362 0 0 0
315 105 3 -0.398 16.54967310715525 0.48108423336591244 7.417591173045253 0 1 1
314 105 2 0.129 16.322377388433324 0.31870164911666216 6.294818910926657 0 1 1
313 105 1 0.269 16.019840303876915 0.10256579799838811 4.800377006291715 0 1 1
178 60 1 0.269 22.506768031431758 2.976951404026499 1.9858323559738227 0 0 0
225 75 3 -0.398 29.658984455043765 2.7297808927630274 1.2369502924163644 -1 0 0
607 203 1 0.269 23.243999135526924 6.181395665496379 4.4653355384855775 0 0 0
534 178 3 -0.398 25.197401383440376 4.5809207300632355 2.609729090991152 0 1 1
533 178 2 0.129 25.917980941355182 5.47547936294828 2.7482171881229345 0 1 1
532 178 1 0.269 26.877092885338588 6.666162417955169 2.9325487953683593 0 1 1
990 330 5 -0.35 29.06911952609181 5.498183389477039 5.499714054043071 -1 0 0
350 117 2 0.129 28.751489492807625 1.4990489878645998 5.905735770328294 0 0 0
988 330 4 0.7 28.915440414596898 6.523166719909124 6.02066693389449 -1 0 0
421 141 1 0.269 26.986582680320947 0.4554897241706105 1.2274494622137253 0 1 0
189 63 3 -0.398 26.362044310166514 5.32680861653122 6.644945403490704 -1 1 -1
351 117 3 -0.398 27.801250760410934 1.0393019267644712 6.3793685302417105 0 0 0
187 63 1 0.269 24.5041041726508 3.4892396450485963 7.312184281588739 -1 1 -1
188 63 2 0.129 25.564996946760626 4.538500385161035 6.931187665989565 -1 1 -1
231 77 3 -0.398 6.152765067829961 7.847450007357972 5.758395697741125 1 0 0
665 222 2 0.129 3.167869597209691 11.200538391088497 2.9181148653403888 1 0 1
664 222 1 0.269 2.3818237498597794 12.496882392301126 2.647515241572568 1 0 1
772 258 1 0.269 5.884028531619375 11.678518604992679 5.518917599704741 0 0 1
773 258 2 0.129 5.474654551696747 13.009376319959173 4.861018909117245 0 0 1
774 258 3 -0.398 5.1670924122354 14.00924799282686 4.366740477292742 0 0 1
666 222 3 -0.398 3.7584248214849256 10.226596826541085 3.1214160112490723 1 0 1
250 84 1 0.269 2.5924404329961175 8.7811279410039 5.668596028993251 1 0 0
171 57 3 -0.398 2.475034692744151 11.795637521531557 6.3863409393293145 1 0 0
170 57 2 0.129 2.7996986244245843 12.529241212571078 7.220048295635661 1 0 0
703 235 1 0.269 6.050366280461321 8.9732380970883 2.0539950862228724 0 0 1
370 124 1 0.269 0.0036620074184933685 9.811219509046824 1.0540090260754287 1 0 0
704 235 2 0.129 7.368969788931465 8.196948135653596 2.2279453182570395 0 0 1
372 124 3 -0.398 0.022673972813891004 8.148327433451978 3.1772700769342492 1 0 0
371 124 2 0.129 0.014517931300180325 8.861700118458737 2.2664013205962243 1 0 0
706 236 1 0.269 8.576979238574175 14.623129798520177 3.5623507765327695 0 1 1
707 236 2 0.129 8.409433665896259 14.999543868782332 5.0462109211500445 0 1 1
681 227 3 -0.398 11.436363284404173 14.276382011321136 0.8143329328504316 0 0 1
705 235 3 -0.398 8.359634892372993 7.613722495796484 2.3586339016749194 0 0 1
55 19 1 0.269 9.031991577298687 11.72363069955519 0.6355881634444056 1 0 0
323 108 2 0.129 12.416536458939648 9.267263837412774 0.4635926027581109 0 0 0
322 108 1 0.269 12.791694576061918 7.9598849872808195 1.1858231264723071 0 0 0
610 204 1 0.269 9.724565154367387 9.286081532095416 5.924109834671286 0 0 0
907 303 1 0.269 12.16344872383704 12.181114783513578 3.548740659534576 0 0 1
908 303 2 0.129 12.384328477499086 10.67370730908887 3.7735402157403986 0 0 1
56 19 2 0.129 8.68845707077435 11.304593191519809 2.0771122214076856 1 0 0
57 19 3 -0.398 8.430360042171328 10.989770855937381 3.1601273740463345 1 0 0
909 303 3 -0.398 12.550275149568552 9.54119403122563 3.942431830370357 0 0 1
611 204 2 0.129 9.826978731585822 10.283374845750783 7.093091231332043 0 0 0
504 168 3 -0.398 11.676671120664041 14.527343996146978 5.969051895321471 0 0 0
694 232 1 0.269 13.53727230919407 9.78107008152131 7.379356349172227 0 -1 0
503 168 2 0.129 11.913661016436174 14.085694714955771 7.011851349543622 0 0 0
691 231 1 0.269 19.28212048011027 7.611644592045856 1.1668392580227902 0 0 1
583 195 1 0.269 20.061000477212087 8.88193079492677 5.366768083783429 0 0 0
232 78 1 0.269 15.878673386014778 12.240095858287575 0.7567768736171907 0 0 0
523 175 1 0.269 16.071945620925565 8.384277493066172 4.271162317912897 0 -1 1
233 78 2 0.129 16.718113406696485 11.414275613363973 1.7492290763714675 0 0 0
980 327 5 -0.35 20.895517883396582 12.528874368861654 3.201764826374471 0 -1 0
729 243 3 -0.398 17.321000707208615 10.664395500472379 7.143721782731806 0 0 0
728 243 2 0.129 17.69909376652928 11.478078138995167 6.413232082420357 0 0 0
727 243 1 0.269 18.202346412470355 12.561112938757564 5.440929456249545 0 0 0
234 78 3 -0.398 17.34878360405281 10.7938379358467 2.494857127401791 0 0 0
979 327 4 0.7 20.808543455375947 11.764225469665142 2.3338088886518498 0 -1 0
981 327 5 -0.35 20.72156902735531 10.99957657046863 1.4658529509292297 0 -1 0
584 195 2 0.129 21.248395821473196 9.426758401216404 4.551381564484827 0 0 0
585 195 3 -0.398 22.140484401544693 9.83608667425348 3.9387827314793125 0 0 0
896 299 2 0.129 21.664854081300106 12.416248008791145 6.8342497602507555 -1 0 0
750 250 3 -0.398 15.823586622785887 14.129662233472722 3.6341323048918537 0 -1 1
462 154 3 -0.398 20.39449369723197 13.424718264954336 0.06693187997287275 0 0 0
897 299 3 -0.398 20.61633762120656 12.265694952163491 7.2996485248105785 -1 0 0
989 330 5 -0.35 28.761761303101988 7.548150050341213 6.541619813745907 -1 0 0
405 135 3 -0.398 29.35963525558046 11.85942245966818 4.107547806790187 0 -1 0
895 299 1 0.269 23.060459395512776 12.616638421242818 6.214790730499568 -1 0 0
404 135 2 0.129 29.413330318839442 11.42093780280626 5.176892019791061 0 -1 0
793 265 1 0.269 23.84102916688019 7.98696265301848 0.863131164209671 -1 1 1
800 267 2 0.129 26.1404012580678 14.685099925574486 6.612639611331497 0 0 0
546 182 3 -0.398 24.530859098192042 11.646157125640347 1.6080204228080202 0 0 1
545 182 2 0.129 25.022265430269005 11.088218947606695 2.494515660408184 0 0 1
185 62 2 0.129 28.226222360397536 13.415181749337744 1.6975776538677678 0 0 0
544 182 1 0.269 25.676341274174387 10.34558731910901 3.674466106306407 0 0 1
403 135 1 0.269 29.48479997952988 10.837302218046226 6.6002196671733815 0 -1 0
801 267 3 -0.398 26.220244897778155 13.660452121155185 6.081253809772704 0 0 0
184 62 1 0.269 27.23263406781302 13.962847537643885 2.7389442987896135 0 0 0
186 62 3 -0.398 28.972703954241872 13.003721153837615 0.9152002459622027 0 0 0
69 23 3 -0.398 26.02847891020333 9.243622922980782 7.2319802964614315 -1 0 0
564 188 3 -0.398 26.91285943717522 9.037201311741754 0.08104906710224113 0 0 1
229 77 1 0.269 7.14757700250786 6.840241866962249 8.05397622922795 1 0 0
846 282 3 -0.398 1.8258197395810667 1.5980093817957517 9.85121159462773 1 0 0
939 313 3 -0.398 5.182321287752311 0.22217814138781145 13.672101469417676 0 0 0
916 306 1 0.269 0.9875139267204411 3.8842690301469567 12.108278936025028 1 0 0
718 240 1 0.269 4.779917110636477 1.331083489502632 10.171713921990083 0 0 0
624 208 3 -0.398 2.978553704119465 5.339792202788725 10.005084287310856 0 0 0
623 208 2 0.129 2.230147627443285 6.018668355787736 9.441466940803368 0 0 0
269 90 2 0.129 5.583661999866785 5.996955493329494 13.173014420998204 -1 0 -1
268 90 1 0.269 5.633283196498907 5.760397356779978 11.652100884705725 -1 0 -1
845 282 2 0.129 1.1168114076318778 0.7853216906831084 9.432290478018977 1 0 0
270 90 3 -0.398 5.546381659280188 6.174681314100786 14.315674785602354 -1 0 -1
622 208 1 0.269 1.2339977933194246 6.922271878362045 8.691276177085532 0 0 0
719 240 2 0.129 5.6108893763621595 0.047564729114255744 9.98823453533669 0 0 0
331 111 1 0.269 8.558417807527558 1.301665690338159 7.743347550866324 1 1 -1
177 59 3 -0.398 8.049968669510845 4.066054558887079 10.993886510241502 1 0 0
193 65 1 0.269 14.371733153772 5.078491465475993 14.64071562140563 0 0 0
470 157 2 0.129 11.093127775436797 0.9876615981722251 11.153842922169341 1 0 0
176 59 2 0.129 7.95661157548339 3.290913770369397 11.847754305026575 1 0 0
659 220 2 0.129 11.200373693376243 6.0962419223913615 8.7124167556619 0 0 0
658 220 1 0.269 11.095573976347344 4.688297248447701 9.32748489369351 0 0 0
175 59 1 0.269 7.832350620598098 2.2591792722559676 12.9842766939367 1 0 0
469 157 1 0.269 12.274995679402753 0.7825777724978843 12.119621821308664 1 0 0
783 261 3 -0.398 14.230067499237624 5.307736627934024 10.913394034406924 0 -1 0
782 261 2 0.129 13.83981201132339 6.395321186452423 10.972634917465367 0 -1 0
195 65 3 -0.398 12.609344003814808 3.285552421112355 13.664414916035206 0 0 0
866 289 2 0.129 9.61424310618446 7.332069619081737 12.814965162870957 0 0 0
471 157 3 -0.398 10.20519195408055 1.1417408100587314 10.42825448950428 1 0 0
194 65 2 0.129 13.365400454130148 4.0547146288723575 14.083243212703199 0 0 0
865 289 1 0.269 9.835942224980085 5.970027448182986 13.49855175242606 0 0 0
660 220 3 -0.398 11.27910958467652 7.154028927425658 8.250316862348543 0 0 0
339 113 3 -0.398 19.10491924193867 0.20703287548406246 12.644441822657301 0 0 0
994 332 4 0.7 15.363670067713832 0.8511058943445903 14.090235945619446 0 1 0
338 113 2 0.129 18.965940019061975 1.3538099461429312 12.709527349615698 0 0 0
90 30 3 -0.398 17.798123675834837 4.534797971383393 9.411589863814221 0 0 -1
88 30 1 0.269 15.939548673651116 2.7446149816180494 10.195651611646392 0 0 -1
391 131 1 0.269 17.701505761773593 6.773659725065126 11.889486004712348 -1 1 0
89 30 2 0.129 17.00080395854653 3.7668180977614063 9.747948574322868 0 0 -1
337 113 1 0.269 18.78095470944217 2.8802029356110914 12.796158042369317 0 0 0
847 283 1 0.269 20.896254790543534 5.479214132226378 9.870209877426497 0 0 0
848 283 2 0.129 20.69479405345269 3.958205130291074 10.002668125351686 0 0 0
699 233 3 -0.398 21.208308710681287 5.323211780090251 13.772897675885611 -1 1 0
996 332 5 -0.35 15.658552823829611 0.7788497758355355 12.970672095950864 0 1 0
698 233 2 0.129 21.12741736123924 6.193652729115811 14.530814652767543 -1 1 0
849 283 3 -0.398 20.543436863313666 2.8154730424734495 10.102183834994184 0 0 0
262 88 1 0.269 19.85730515450316 0.030724757490426136 8.545492688726696 0 0 0
580 194 1 0.269 22.395367386231023 2.2570710970698364 14.329883741364059 0 1 0
237 79 3 -0.398 23.107396645366236 0.09517753594753875 7.627274702609317 -1 1 0
435 145 3 -0.398 29.869683031048496 4.2873460853525645 7.76358552576398 -1 1 0
917 306 2 0.129 29.58528557668051 4.495278284529023 12.287229614719125 0 0 0
343 115 1 0.269 27.590685397757028 7.200485240265317 9.475622903396108 0 1 0
526 176 1 0.269 27.97939022260542 7.4927836257045035 14.776883601659632 0 0 0
918 306 3 -0.398 28.53179323837129 4.95432874382775 12.421675027218525 0 0 0
434 145 2 0.129 29.034491276296922 3.8817819105970623 8.453963272327755 -1 1 0
433 145 1 0.269 27.92282722935014 3.341964426479963 9.372875743985666 -1 1 0
132 44 3 -0.398 28.38555905788196 1.3349059567351282 11.946861552579703 0 0 -1
834 278 3 -0.398 24.606339241224003 1.6274505456838955 11.863069776186641 0 0 0
131 44 2 0.129 27.72323965638472 1.6495207821243 12.841847318972137 0 0 -1
130 44 1 0.269 26.841673642291596 2.0682820881738464 14.03309890086008 0 0 -1
129 43 3 -0.398 24.38359323726878 5.61717086474587 9.95231053498492 0 0 0
128 43 2 0.129 24.335815077346698 5.904402755226384 11.072071263232989 0 0 0
127 43 1 0.269 24.272220983759834 6.2867165938953455 12.562504730391181 0 0 0
833 278 2 0.129 23.783566780289135 0.9284284657350483 11.447061832426337 0 0 0
380 127 2 0.129 1.810803582050019 14.956126998970992 11.95481962668388 0 -1 0
879 293 3 -0.398 0.23560318874081188 7.945507213271317 12.078374552511585 0 0 0
638 213 2 0.129 6.911675408467644 14.425635546773972 9.161906733079158 1 0 1
878 293 2 0.129 1.0648172385845012 8.061559079936691 12.876863765830308 0 0 0
169 57 1 0.269 3.2318355775688046 13.505688649218321 8.329736565913768 1 0 0
1023 341 5 -0.35 0.13905800415742636 9.92131713670238 10.104954918367298 0 0 0
675 225 3 -0.398 2.5082131495789377 11.259519751457928 11.883967304659535 1 0 0
674 225 2 0.129 3.433920175539723 11.947667474629407 11.793589137057033 1 0 0
673 225 1 0.269 4.66606263014612 12.86361172154737 11.673293218208416 1 0 0
74 25 2 0.129 5.601599292152302 9.93991584160777 9.622777129514681 0 0 0
75 25 3 -0.398 5.110364792323364 10.373322619965407 8.669102011535518 0 0 0
877 293 1 0.269 2.16852478980255 8.216027424504256 13.939675683298624 0 0 0
73 25 1 0.269 6.255446422434549 9.363039057968392 10.892145912304573 0 0 0
379 127 1 0.269 0.4438101768497358 14.346576217127732 11.59236014688934 0 -1 0
355 119 1 0.269 6.659013105253096 14.574298308026773 14.607342695328153 0 -1 0
639 213 3 -0.398 5.897316832204681 14.95065805250808 9.346506427645883 1 0 1
548 183 2 0.129 12.148952152476545 8.674586753985999 14.551987724317149 0 -1 0
347 116 2 0.129 11.659307545063744 14.456742708442704 12.397609555295373 0 -1 0
348 116 3 -0.398 12.600198299012431 13.90505371220064 12.011587741717355 0 -1 0
637 213 1 0.269 8.261815605049291 13.726815616929086 8.916199274451019 1 0 1
867 289 3 -0.398 9.44768084615424 8.355370133192029 12.301387445913 0 0 0
502 168 1 0.269 12.229101327144095 13.497846924951922 8.399847165880796 0 0 0
781 261 1 0.269 13.320370826027009 7.842927253970431 11.051486222486977 0 -1 0
612 204 3 -0.398 9.903921919145382 11.03264001711394 7.971345436485601 0 0 0
695 232 2 0.129 13.552242995817641 10.419127092048758 8.78087664151815 0 -1 0
768 256 3 -0.398 8.0487069151718 11.99101444278477 12.564119248913618 1 0 0
766 256 1 0.269 10.395014802971591 11.314434062446834 11.419179388226537 1 0 0
767 256 2 0.129 9.055261689433706 11.700764720852627 12.07294556748427 1 0 0
696 232 3 -0.398 13.563490453235481 10.898498495412559 9.833837017001427 0 -1 0
1001 334 5 -0.35 14.795520001647027 11.915119517452949 14.450723166757427 0 0 0
549 183 3 -0.398 12.741127256765001 7.76700087967876 14.146690886654628 0 -1 0
1018 340 4 0.7 16.94082619039692 8.073216410839528 8.283786007597044 0 1 0
1020 340 5 -0.35 17.732614162394558 7.557603326478091 7.61087074202881 0 1 0
837 279 3 -0.398 18.835237854789966 13.984181992603112 10.725010616223384 0 -1 0
1000 334 4 0.7 15.122957708754267 10.863758760264771 14.085997096660309 0 0 0
1002 334 5 -0.35 15.450395415861507 9.812398003076602 13.721271026563185 0 0 0
1019 340 5 -0.35 16.149038218399276 8.588829495200962 8.956701273165278 0 1 0
620 207 2 0.129 20.694954001574406 11.623861497168567 14.33411476291327 0 0 0
392 131 2 0.129 18.005543353039428 8.273577845646566 11.718001968571713 -1 1 0
619 207 1 0.269 19.727502462214677 11.665158563733764 13.136645735637781 0 0 0
393 131 3 -0.398 18.233966400503444 9.400464381693793 11.589166234925791 -1 1 0
836 279 2 0.129 17.859483198480927 13.518288239885475 10.313313079348159 0 -1 0
983 328 5 -0.35 21.571428343793713 13.280342289259186 10.867566544348934 0 1 1
835 279 1 0.269 16.560725920420488 12.898170366778151 9.765331915313714 0 -1 0
982 328 4 0.7 21.63402208872477 14.201871479486902 10.165807344441943 0 1 1
301 101 1 0.269 20.17409653664558 9.810465211582754 9.187434685749082 0 -1 0
302 101 2 0.129 21.10285278538061 9.201960421465111 10.254549370701382 0 -1 0
303 101 3 -0.398 21.800626148878298 8.744791562915681 11.05627124764282 0 -1 0
506 169 2 0.129 28.183669230200998 11.101874640846402 14.866253051923891 -1 0 0
68 23 2 0.129 25.012184770429723 8.874914714387929 7.644108284322072 -1 0 0
1021 341 4 0.7 29.77285308388296 10.453141966239818 11.068623070302532 -1 0 0
67 23 1 0.269 23.659468283609197 8.384153572440654 8.192662390895434 -1 0 0
150 50 3 -0.398 24.032208944291224 11.916598236005012 10.26868516241748 -1 1 0
149 50 2 0.129 23.907611920073492 11.268392173613915 11.218923807303238 -1 1 0
345 115 3 -0.398 26.596517677403973 8.96087581855033 11.260690004569993 0 1 0
521 174 2 0.129 26.76234218366195 13.319877537230678 10.004753216978271 0 0 1
344 115 2 0.129 27.02301083737746 8.2056767458489 10.494904822494284 0 1 0
1022 341 5 -0.35 29.406648163608494 10.984966795777256 12.032291222237767 -1 0 0
505 169 1 0.269 26.974462806131555 11.301957423644234 13.93384396572959 -1 0 0
522 174 3 -0.398 26.491970917116234 14.407986959410689 10.290351297486017 0 0 1
148 50 1 0.269 23.741769727078417 10.405611416412286 12.483718546390598 -1 1 0
520 174 1 0.269 27.122214050974318 11.871572861208893 9.624614025982657 0 0 1
629 210 2 0.129 6.4102964588930265 3.6226298801647356 16.32435924914967 1 0 0
490 164 1 0.269 0.2957348693422308 4.623471331945391 17.62689441703771 1 1 0
491 164 2 0.129 1.627268054060733 5.195073469569684 17.10546333409768 1 1 0
492 164 3 -0.398 2.627647206475871 5.62451741322638 16.713712838668062 1 1 0
869 290 2 0.129 4.857175720760858 4.1011112042933835 20.303481026226564 0 0 0
870 290 3 -0.398 4.747828338277199 4.588796994078698 19.259999008947137 0 0 0
247 83 1 0.269 3.2751017608006587 7.319180457177633 21.334915232904876 1 1 -1
628 210 1 0.269 4.991822202190213 3.465287674435952 15.745762486827966 1 0 0
248 83 2 0.129 2.1612206001666054 6.434229160430047 20.745228907499506 1 1 -1
868 290 1 0.269 5.002720205656998 3.4519875082956477 21.692385353461066 0 0 0
249 83 3 -0.398 1.3243631307811514 5.769366400470985 20.30219833704885 1 1 -1
115 39 1 0.269 5.587831270412815 7.299731124917637 17.42395540121458 0 0 -1
966 322 5 -0.35 2.2987408071735826 1.4930627898890152 21.90467998917998 0 0 -1
964 322 4 0.7 1.5560496926971255 1.8944279764347909 21.109119874854372 0 0 -1
965 322 5 -0.35 0.813358578220668 2.2957931629805666 20.31355976052876 0 0 -1
630 210 3 -0.398 7.475994325779495 3.7408408749882396 16.75905824525759 1 0 0
957 319 3 -0.398 5.32855554832345 0.44191068218043117 21.08928288086016 0 0 0
956 319 2 0.129 6.26750064417802 0.1871430938974112 21.715481398049942 0 0 0
48 16 3 -0.398 8.542811997177006 3.685944613401595 20.65605756092807 0 1 -1
47 16 2 0.129 8.607303791665599 4.581442813067857 19.926281716686752 0 1 -1
46 16 1 0.269 8.693144209567443 5.773376458258911 18.954929253305917 0 1 -1
823 275 1 0.269 11.405816058861687 3.021678502781658 21.162991721173952 0 0 0
824 275 2 0.129 11.136229534111282 1.8708067636546826 20.175865920806128 0 0 0
538 180 1 0.269 10.650409929843292 2.0482603165415982 16.514448117915677 0 0 0
825 275 3 -0.398 10.93368952817867 1.0061583206872076 19.434239588971344 0 0 0
539 180 2 0.129 11.02848651487287 0.6949661546757976 15.884168015649811 0 0 0
747 249 3 -0.398 12.444731751695121 4.8242322809493245 18.102709880799488 -1 0 0
746 249 2 0.129 13.017985647622243 5.826609717410487 18.17529394019331 -1 0 0
745 249 1 0.269 13.781002933471655 7.160802675189389 18.271905393491917 -1 0 0
300 100 3 -0.398 14.522314617585813 1.7845973207862476 19.10843668086309 0 0 0
299 100 2 0.129 14.039177555217762 0.7728732741132455 18.822705981865106 0 0 0
648 216 3 -0.398 17.579439289099476 5.6678717970581305 15.50257296660299 0 1 0
601 201 1 0.269 16.60085912676587 4.801346970629659 21.043392424200988 0 0 0
582 194 3 -0.398 21.129028969556373 2.2091262056336487 16.710618355269332 0 1 0
603 201 3 -0.398 17.74781861149894 6.1553724773843355 19.012405504636696 0 0 0
602 201 2 0.129 17.25577852108879 5.574502061620461 19.88368910342642 0 0 0
646 216 1 0.269 17.905286871340348 3.4203829609648313 16.957367207993347 0 1 0
676 226 1 0.269 20.853722157578947 4.723308037768736 19.662207629796395 -1 0 0
677 226 2 0.129 19.836807626090707 3.5897332739653622 19.89132133631858 -1 0 0
678 226 3 -0.398 19.072801059251812 2.7380800260949103 20.063454166478426 -1 0 0
647 216 2 0.129 17.719226331239888 4.703709919653628 16.126672683803083 0 1 0
581 194 2 0.129 21.672282046342644 2.229694332957219 15.689294681450866 0 1 0
697 233 1 0.269 21.01974866794558 7.352234459020177 15.539623766335538 -1 1 0
995 332 5 -0.35 15.068787311598049 0.923362012853645 15.20979979528803 0 1 0
811 271 1 0.269 22.318707995698844 1.6672715165963716 22.013898708999562 0 1 0
912 304 3 -0.398 23.15703007521184 6.319770261844192 17.889164019338416 -1 0 0
110 37 2 0.129 28.766026775382954 0.5241317160201348 16.93735092436061 0 0 0
515 172 2 0.129 24.917186353578757 1.2314203006070135 17.648555688926177 0 1 0
516 172 3 -0.398 25.58404145815804 1.9759067229120086 17.065723606332757 0 1 0
528 176 3 -0.398 27.398407156442186 6.66017040678217 17.27548779290352 0 0 0
527 176 2 0.129 27.647646091388744 7.017357464362128 16.203598638558255 0 0 0
910 304 1 0.269 24.638962253571147 4.87782304491087 16.157553716088927 -1 0 0
911 304 2 0.129 23.792771836562128 5.701181856211316 17.14631154590139 -1 0 0
419 140 2 0.129 24.983895889891368 3.8931465341001434 20.21696101272903 -1 1 -1
420 140 3 -0.398 23.859077301457265 3.6223853015744334 20.22793817419362 -1 1 -1
418 140 1 0.269 26.481061513217657 4.2535374572545 20.20235009772862 -1 1 -1
514 172 1 0.269 24.029583189315918 0.24048763824772512 18.424321814417837 0 1 0
109 37 1 0.269 28.343777211337475 1.0125994665107294 18.33545841750695 0 0 0
111 37 3 -0.398 29.083262324474266 0.15714652945025132 15.886954580483781 0 0 0
446 149 2 0.129 23.860039183544025 7.487212314057719 21.86692472432064 -1 0 -1
447 149 3 -0.398 24.913018728923216 7.427350053683902 22.342634285709888 -1 0 -1
856 286 1 0.269 27.72923034849222 0.5414672123249049 22.444566792435786 -1 0 0
857 286 2 0.129 26.870152404133293 0.04958150003321865 21.264891611905536 -1 0 0
702 234 3 -0.398 3.9300130580771624 13.032414680811144 16.586806423676578 0 0 0
116 39 2 0.129 4.473424101756021 8.257676051568936 16.96347936497752 0 0 -1
117 39 3 -0.398 3.6361714432262056 8.977378830877734 16.617524316973444 0 0 -1
888 296 3 -0.398 6.959683180471816 8.632893377870694 21.09939490110878 0 0 0
431 144 2 0.129 1.3258031250507878 12.492091825272558 21.070853044758465 0 0 0
432 144 3 -0.398 2.098064142492122 12.93997733727514 20.334877169420366 0 0 0
1036 346 4 0.7 3.701704165137282 10.86116137523453 19.843783081676236 0 0 0
1038 346 5 -0.35 4.565589520023286 11.635289599565025 19.849035310591127 0 0 0
401 134 2 0.129 6.644526375728501 14.804380719333313 19.610151556551696 0 0 0
1037 346 5 -0.35 2.8378188102512705 10.087033150904036 19.838530852761338 0 0 0
700 234 1 0.269 1.4248053786664685 12.266393810904257 17.227864541080017 0 0 0
887 296 2 0.129 7.166806290983359 9.76213281396845 21.24280798647098 0 0 0
701 234 2 0.129 2.855291039138279 12.703795419972337 16.86181726603319 0 0 0
634 212 1 0.269 6.2832532562710846 10.736339634406358 15.160176507895027 0 1 0
635 212 2 0.129 7.264225995507074 9.549504805539915 15.186926720326777 0 1 0
886 296 1 0.269 7.442493058647817 11.26518271162664 21.433694893521785 0 0 0
508 170 1 0.269 0.4684805720893592 8.271209655910607 17.416993610059546 0 0 0
430 144 1 0.269 0.29790168437692444 11.89594343418874 22.050457926366654 0 0 0
400 134 1 0.269 5.170285586082362 14.782546598579186 19.16547485903424 0 0 0
636 212 3 -0.398 8.001229540504498 8.65783733995649 15.207024120186217 0 1 0
998 333 5 -0.35 11.964482793885871 10.198832669580009 20.90391996012837 0 1 0
999 333 5 -0.35 10.104406336926374 10.308198528193298 19.52169180123725 0 1 0
997 333 4 0.7 11.034444565406124 10.253515598886654 20.212805880682808 0 1 0
860 287 2 0.129 10.095006565574037 13.869237833843943 16.41029058023142 0 0 0
547 183 1 0.269 11.36075019862673 9.882609438889325 15.091449375138486 0 -1 0
297 99 3 -0.398 13.091205686039853 10.562368156458197 18.21698789945582 0 -1 -1
296 99 2 0.129 13.10310965577729 11.695323681021074 18.451336090973296 0 -1 -1
1026 342 5 -0.35 10.073259772897885 13.299739902679727 20.992472927066917 0 0 1
295 99 1 0.269 13.118954179023318 13.203319798416778 18.763260217971496 0 -1 -1
1024 342 4 0.7 10.371517589833442 14.409995916069239 20.837637984727717 0 0 1
861 287 3 -0.398 10.169742313801112 13.021773113821057 15.626155951323224 0 0 0
822 274 3 -0.398 12.860812614197057 13.527339796901966 22.389166288413467 0 -1 0
402 134 3 -0.398 7.752121566391214 14.820784665899886 19.94423658189435 0 0 0
859 287 1 0.269 9.99553115306781 14.997237547616837 17.453996136427286 0 0 0
780 260 3 -0.398 17.88707854035539 13.404709052854788 15.122039533094648 0 0 0
139 47 1 0.269 17.738078228811087 9.339689694877963 18.876905007107915 -1 1 -1
141 47 3 -0.398 20.39739964983822 9.289319099258453 18.43049557310926 -1 1 -1
140 47 2 0.129 19.256563578600403 9.31092784198436 18.62200306852507 -1 1 -1
805 269 1 0.269 21.034298597175077 11.922715122288741 20.175622074330327 0 0 0
779 260 2 0.129 18.176348089653423 13.484928290602523 16.23941905758225 0 0 0
778 260 1 0.269 18.561374110326696 13.591702384061042 17.726683074618474 0 0 0
102 34 3 -0.398 17.78061391626916 11.943404563142645 20.997127209999565 -1 0 -1
894 298 3 -0.398 15.547383761826929 14.552997151395083 20.134425350040967 0 0 0
101 34 2 0.129 17.818509677131768 12.321880466423295 22.089816050404277 -1 0 -1
445 149 1 0.269 22.458493375519865 7.566890690009041 21.23374172990453 -1 0 -1
806 269 2 0.129 22.31779167860311 11.619182491925846 20.970677702718323 0 0 0
621 207 3 -0.398 21.421799086664794 11.59283506469069 15.233771687950766 0 0 0
949 317 1 0.269 22.621782778735188 14.29984299284859 16.066133523118516 0 0 0
1031 344 5 -0.35 26.294579151089458 7.722458460010352 19.748755737579955 0 0 0
509 170 2 0.129 29.63899142308697 8.924896902301201 18.53781506577525 -1 0 0
510 170 3 -0.398 29.015797302700115 9.416011281569977 19.379886769842173 -1 0 0
507 169 3 -0.398 29.092144446206415 10.951552705978166 15.56677078746078 -1 0 0
144 48 3 -0.398 24.983049264770052 12.84177579152534 17.107466339319835 0 0 -1
807 269 3 -0.398 23.282078363805866 11.391138820932424 21.568001963786454 0 0 0
556 186 1 0.269 23.584350458017123 9.830563826742386 17.006844562451054 -2 -1 0
1032 344 5 -0.35 25.437540959966306 9.871289524724068 19.574369401323125 0 0 0
1030 344 4 0.7 25.866060055527882 8.79687399236721 19.661562569451544 0 0 0
142 48 1 0.269 27.23926256645841 12.0639306817385 18.363757516742556 0 0 -1
143 48 2 0.129 25.950953895861424 12.508083988772885 17.646409198896436 0 0 -1
557 186 2 0.129 24.36964073368063 9.042979795946536 15.94165416755229 -2 -1 0
164 55 2 0.129 25.871254103761473 14.584835339273736 21.175201977523756 0 0 0
165 55 3 -0.398 26.53141543000311 14.142630196132679 22.016207705634535 0 0 0
558 186 3 -0.398 24.959628297929118 8.451268936446017 15.141378007229003 -2 -1 0
12 4 3 -0.398 6.931358612077645 0.24919401554816867 29.6789983192244 0 1 -1
769 257 1 0.269 1.7499214051264183 2.1522358527174 28.39035940661162 1 0 -1
976 326 4 0.7 3.1818540039078567 4.96124883576712 24.150678969364773 2 1 -1
978 326 5 -0.35 3.965306417753158 5.747585107448683 24.487543308643325 2 1 -1
977 326 5 -0.35 2.398401590062558 4.174912564085558 23.81381463008622 2 1 -1
244 82 1 0.269 5.36423959983294 1.3626299092934182 26.482527073897675 1 1 -1
245 82 2 0.129 6.014464178406885 2.3427767714270593 25.488484757862995 1 1 -1
160 54 1 0.269 7.1776374022522855 7.1171407669111835 26.753875672878166 0 0 -1
246 82 3 -0.398 6.502977059841982 3.0791598360300587 24.741662056790187 1 1 -1
424 142 1 0.269 2.0691507864106287 6.58016883413281 27.641109083857994 1 0 -1
770 257 2 0.129 2.798906225924846 3.2692159398424 28.543937825345346 1 0 -1
654 218 3 -0.398 1.4094601437444134 7.1247145953800795 23.918304597529023 1 1 0
771 257 3 -0.398 3.587007159472759 4.1084016286759235 28.6593210918875 1 0 -1
425 142 2 0.129 0.7856368962082066 7.019128363206801 28.370154093094136 1 0 -1
653 218 2 0.129 0.42122312963823605 7.405347538091296 23.38606240133014 1 1 0
120 40 3 -0.398 0.4983729386253688 0.5388048126202313 25.343072230621257 0 1 -1
11 4 2 0.129 6.566417583767023 1.347109806029484 29.685923842082882 0 1 -1
10 4 1 0.269 6.080670666223061 2.8084670379579357 29.69514191053756 0 1 -1
661 221 1 0.269 9.077638385941965 6.695950298833974 23.130322435656936 0 1 -1
759 253 3 -0.398 13.898955667333864 5.068064271085083 22.734675238671876 0 0 0
280 94 1 0.269 9.719494594383214 0.9531078981457756 28.022676319697656 1 1 -1
396 132 3 -0.398 13.028633921567062 1.6159877843659212 26.060088057827297 -1 0 -1
690 230 3 -0.398 9.42373311495432 4.604259255142798 26.816247807234504 0 0 0
758 253 2 0.129 13.904408960595443 5.429385672331683 23.833795844698454 0 0 0
688 230 1 0.269 9.969766324837805 2.951683846480839 24.755992664688275 0 0 0
689 230 2 0.129 9.657978730021131 3.8953123705221477 25.932408281863356 0 0 0
395 132 2 0.129 13.493118353720341 1.4117372399750223 27.099888484545506 -1 0 -1
123 41 3 -0.398 12.750487795434122 4.616824744548394 28.349799312376003 0 1 -1
122 41 2 0.129 13.601351434617047 4.841036027212306 29.101071146163985 0 1 -1
757 253 1 0.269 13.91166744946565 5.910314763014279 25.296756720481447 0 0 0
394 132 1 0.269 14.111360380959795 1.1398739397485835 28.483892509736556 -1 0 -1
256 86 1 0.269 14.928542275029642 2.2327375751123144 23.56194827523022 -1 0 -1
257 86 2 0.129 15.750880905077482 0.9667515328632434 23.257582511123275 -1 0 -1
168 56 3 -0.398 18.040185409371684 4.644602717547595 23.98413705272856 0 0 -1
167 56 2 0.129 18.739966493590813 3.7717308764562256 24.279179733028432 0 0 -1
711 237 3 -0.398 19.310394512189813 3.9443322240859082 29.322864763406837 0 0 0
709 237 1 0.269 18.99815406013918 1.3367954756245957 28.708806944041285 0 0 0
87 29 3 -0.398 15.951521934087012 4.092909427393927 27.127093719566318 -1 0 -1
86 29 2 0.129 16.736822581441945 4.942296143050612 27.10486534737757 -1 0 -1
166 56 1 0.269 19.671395075870382 2.6099135598782617 24.67188995572662 0 0 -1
85 29 1 0.269 17.78208014144765 6.072854087831337 27.07527874999583 -1 0 -1
710 237 2 0.129 19.176444863312327 2.8257115277678766 29.059436918762437 0 0 0
552 184 3 -0.398 21.83178661887131 5.592981820530838 24.059520100613874 -1 1 0
258 86 3 -0.398 16.368702849860174 0.01561786345923255 23.028912907829945 -1 0 -1
1043 348 5 -0.35 29.699086141951298 3.984801536451038 25.807211831669818 0 1 1
487 163 1 0.269 22.65494358053291 3.6642818880643175 28.238338534308994 0 1 0
426 142 3 -0.398 29.821334577400282 7.348918087322777 28.917884661721555 0 0 -1
489 163 3 -0.398 24.332502953742807 5.668107877200722 27.571791495749746 0 1 0
488 163 2 0.129 23.612838068758062 4.808476186644246 27.857736962421253 0 1 0
813 271 3 -0.398 24.359971773505553 1.2421209547974272 23.72454133363421 0 1 0
812 271 2 0.129 23.48427945206604 1.4245084965109525 22.99068389325517 0 1 0
1 1 1 0.269 27.66163251487675 5.439357295797168 29.444379717116718 -1 1 -1
973 325 4 0.7 25.958519640979663 1.000497568170476 26.76585036304516 0 1 -1
974 325 5 -0.35 26.765191015663927 1.6248430194647934 26.213515273888923 0 1 -1
550 184 1 0.269 24.375371796420314 4.761008868279894 24.39389182679874 -1 1 0
1044 348 5 -0.35 29.156652273251225 3.159920608251115 23.70775072167526 0 1 1
840 280 3 -0.398 28.340407305810185 6.825225492980078 25.617041925118016 0 0 0
551 184 2 0.129 22.92297239952544 5.236069434266717 24.20296395941843 -1 1 0
2 1 2 0.129 26.824540545920943 4.154289309367303 29.30481859874269 -1 1 -1
3 1 3 -0.398 26.195634436776878 3.188819400082008 29.19996651175649 -1 1 -1
1042 348 4 0.7 29.427869207601262 3.572361072351078 24.757481276672536 0 1 1
839 280 2 0.129 27.39682127773303 7.243057839928823 26.14021545030759 0 0 0
975 325 5 -0.35 25.1518482662954 0.37615211687616146 27.318185452201394 0 1 -1
161 54 2 0.129 5.877916807662578 7.918508486813063 26.95421576745752 0 0 -1
714 238 3 -0.398 7.045249403847954 14.586843183720283 29.620188155269837 0 0 -1
567 189 3 -0.398 7.036923628407958 10.486514665374521 28.91871438824162 1 0 0
32 11 2 0.129 1.444737335992907 14.70968786148912 24.101391935293318 1 -1 -1
162 54 3 -0.398 4.901438412896154 8.520575014038048 27.104731020333045 0 0 -1
158 53 2 0.129 1.0420817009001655 10.516134325432672 26.87096485089675 1 0 -1
285 95 3 -0.398 6.282665119977904 13.021263439540244 24.510490674896975 0 0 -1
284 95 2 0.129 5.759719064545877 13.98339300754413 24.13701628824868 0 0 -1
777 259 3 -0.398 2.3866324887153265 10.243343812178894 23.15102830234781 1 0 0
776 259 2 0.129 3.4616284989683708 10.289153485373966 23.57639173728444 1 0 0
566 189 2 0.129 6.020783502114786 10.970563993007971 29.186677990536733 1 0 0
775 259 1 0.269 4.89247884969411 10.350127466981922 24.142562601417893 1 0 0
565 189 1 0.269 4.668272011629485 11.614847454162259 29.543345188060048 1 0 0
159 53 3 -0.398 1.958696342830157 10.713741035401192 27.548768794803415 1 0 -1
712 238 1 0.269 7.327090039469769 13.347562491776218 27.241415735998004 0 0 -1
713 238 2 0.129 7.166157678009777 14.055197740420587 28.599706253491 0 0 -1
31 11 1 0.269 0.8471363750717561 14.266875542614526 25.4498689806153 1 -1 -1
104 35 2 0.129 1.6264215167430152 14.456696230488339 28.83904088260529 1 0 -1
105 35 3 -0.398 2.6934047920551043 14.038353961114735 28.680341683303727 1 0 -1
662 221 2 0.129 9.610972528896873 8.130329711411644 22.95795540652435 0 1 -1
663 221 3 -0.398 10.011665777857152 9.20797710125084 22.82845628139032 0 1 -1
821 274 2 0.129 13.360162634556186 14.360872741035415 23.01727566440766 0 -1 0
855 285 3 -0.398 10.276195712252497 13.492494348766732 27.527368243817786 0 0 0
854 285 2 0.129 11.405233618097665 13.395244960378166 27.293990944958548 0 0 0
93 31 3 -0.398 12.163551726533587 9.519226125874198 26.21273757415506 -1 1 -1
172 58 1 0.269 9.35790615889821 12.749365723561825 24.102522229549155 0 0 0
173 58 2 0.129 9.406289671237024 14.28009017486621 24.264206149325545 0 0 0
92 31 2 0.129 11.13117354791887 9.78342457505133 26.6633410315025 -1 1 -1
91 31 1 0.269 9.757048746651218 10.135080246384765 27.26310708536167 -1 1 -1
853 285 1 0.269 12.908015273241634 13.265803250682065 26.983359103780312 0 0 0
589 197 1 0.269 14.007047521712215 10.298402180284109 23.457351230093643 0 0 0
324 108 3 -0.398 12.134680652764024 10.249495869622303 29.920981748253354 0 0 -1
124 42 1 0.269 22.370727786323542 8.504237788125891 25.828193464253786 0 0 -1
461 154 2 0.129 21.383748412049858 13.232760328930652 29.498445943463857 0 0 -1
310 104 1 0.269 18.883054359029916 7.890606236902258 23.408785794954404 0 0 -1
151 51 1 0.269 15.207833682672252 9.87981338061963 27.449709975939584 0 0 0
312 104 3 -0.398 20.50027893740113 10.008435177716038 22.992619673603574 0 0 -1
311 104 2 0.129 19.80649738857818 9.099896770403635 23.171152933671397 0 0 -1
591 197 3 -0.398 15.89513035734436 8.658032692649654 24.466380540784613 0 0 0
590 197 2 0.129 15.085151921739469 9.361743295984127 24.033511830191564 0 0 0
126 42 3 -0.398 20.281763185193736 7.580115187809822 27.262080947572862 0 0 -1
152 51 2 0.129 15.734427534572133 9.141260354636035 28.69423331559702 0 0 0
891 297 3 -0.398 20.60559268174203 11.646886960847361 26.637024329456928 0 0 0
100 34 1 0.269 17.8689500157043 12.825642688594602 23.5442160626975 -1 0 -1
606 202 3 -0.398 16.234566100943702 13.237688850973479 26.275665593285296 -1 0 0
890 297 2 0.129 19.945536714439363 11.144433034400022 27.44356953700969 0 0 0
605 202 2 0.129 16.88575055356429 13.966836006249407 26.89449693914447 -1 0 0
153 51 3 -0.398 16.130056811616395 8.58638642537433 29.629242084417573 0 0 0
889 297 1 0.269 19.066983395816973 10.47565252728775 28.517104212576893 0 0 0
125 42 2 0.129 21.177918929912753 7.976559328916863 26.646950128811213 0 0 -1
604 202 1 0.269 17.752495633111145 14.937351666685819 27.718179110815278 -1 0 0
460 154 1 0.269 22.700474653034775 12.977258841051245 28.741774947591882 0 0 -1
671 224 2 0.129 27.17090921943496 14.06849449669082 26.236209686418068 -1 0 -1
563 188 2 0.129 26.582757775976553 10.018045319012037 29.563722355365897 0 0 0
670 224 1 0.269 26.248326869456523 14.9040033348945 25.329365273747005 -1 0 -1
672 224 3 -0.398 27.86404414081486 13.440777791624809 26.917520715937826 -1 0 -1
1050 350 5 -0.35 25.11516342656563 14.642114871742933 29.753588212299018 0 0 0
59 20 2 0.129 25.872813401794083 10.557522260444445 24.315734520219056 0 0 0
58 20 1 0.269 26.223744080392507 10.343113004038862 22.83166028703965 0 0 0
794 265 2 0.129 23.35555186475948 9.027188358604684 29.83656296357102 -1 1 0
60 20 3 -0.398 25.60915963871721 10.718607656328377 25.430717564237607 0 0 0
838 280 1 0.269 26.140881361364126 7.799204611148415 26.83657433431101 0 0 0
652 218 1 0.269 29.105851477327512 7.778877989063869 22.67763285755635 0 1 0
562 188 1 0.269 26.143383049748426 11.323576668360563 28.875145746831784 0 0 0
795 265 3 -0.398 22.990813398166186 9.808708580269126 29.065303607636647 -1 1 0
157 53 1 0.269 29.822041468772092 10.253114158318139 25.968788469205943 0 0 -1
577 193 1 0.269 22.828291034045456 12.468236052495424 24.249012931623017 0 0 0
578 193 2 0.129 22.94167579022065 13.978705558848878 23.971117686174058 0 0 0
632 211 2 0.129 5.37991951940286 16.641034102506016 0.8958716910247307 1 0 1
633 211 3 -0.398 6.0568927675901065 17.52715361880593 0.5874103092089338 1 0 1
367 123 1 0.269 4.89600135377415 21.414091539793333 2.0663727293449923 0 0 0
352 118 1 0.269 4.936340326655895 16.717034410704613 6.515796322177224 0 0 0
353 118 2 0.129 3.888258052306006 17.513735646101527 5.716802775450956 0 0 0
354 118 3 -0.398 3.100835200732747 18.112296249578307 5.11651996144947 0 0 0
763 255 1 0.269 1.0531610955419453 19.29541001684484 2.521108923972359 1 0 1
765 255 3 -0.398 1.6983796305802084 16.79446115885649 1.7447347540210456 1 0 1
764 255 2 0.129 1.4215839891121813 17.867356163933437 2.077795530674238 1 0 1
631 211 1 0.269 4.478848817407739 15.461583752374763 1.3064425881693573 1 0 1
368 123 2 0.129 5.826788185924653 22.056757062255674 3.1114645431741743 0 0 0
684 228 3 -0.398 0.49387024301111454 22.064482125432363 4.385303957889101 1 0 1
208 70 1 0.269 0.20912322401329508 15.57056583728032 4.630298479516607 1 -1 0
792 264 3 -0.398 7.015800080433591 18.48047429635337 3.9363164515042537 0 0 0
791 264 2 0.129 7.494629099731951 18.852822224334236 2.9510607533186475 0 0 0
203 68 2 0.129 0.9274679559735189 20.453411984322614 7.396473808172737 1 0 0
940 314 1 0.269 5.6383572086139875 20.723521734746118 6.668620143590329 1 0 0
941 314 2 0.129 7.107200028748434 20.723807957465098 7.1313302988899805 1 0 0
790 264 1 0.269 8.131964181598393 19.34842793659917 1.6396573175314098 0 0 0
954 318 3 -0.398 11.74416265821302 18.130426794039053 2.5130734790264686 0 0 0
953 318 2 0.129 11.321920511196554 17.96770167496016 3.577912013689569 0 0 0
952 318 1 0.269 10.759904170310332 17.751109900213834 4.995242474693176 0 0 0
15 5 3 -0.398 11.777605549757205 21.060420655915866 4.466151904775398 1 -1 -1
14 5 2 0.129 10.871202902112913 21.657156110715164 4.867387542934055 1 -1 -1
680 227 2 0.129 10.631418214995797 15.075026534473785 0.5843778048948882 0 0 1
748 250 1 0.269 14.76186041544447 16.52467815991833 4.274792255817452 0 -1 1
559 187 1 0.269 14.648025049708421 20.348868276013835 2.3902047063538268 0 0 1
94 32 1 0.269 13.716671833100863 16.95169230067133 0.035275707716291904 0 0 0
708 236 3 -0.398 8.283556894734994 15.282343270920851 6.161033120709904 0 1 1
13 5 1 0.269 9.664755125646002 22.451428021165402 5.401443621382053 1 -1 -1
817 273 1 0.269 11.567639224492348 20.720224077656905 1.0881939366078255 0 0 1
942 314 3 -0.398 8.210739731927369 20.72402299622215 7.478963837644328 1 0 0
679 227 1 0.269 9.560013368937975 16.138045173760798 0.2783009707967594 0 0 1
560 187 2 0.129 15.16718111108887 19.88855231476771 1.015364279339322 0 0 1
95 32 2 0.129 15.038795823947384 16.168053849406736 0.13273816474340508 0 0 0
156 52 3 -0.398 16.957862305624587 19.070923926333734 4.392786837723532 1 0 0
155 52 2 0.129 17.966053790697003 19.56427248088859 4.673511138676933 1 0 0
154 52 1 0.269 19.307985413006016 20.220933478308186 5.047163190075582 1 0 0
962 321 5 -0.35 21.41772027871362 18.38482263315915 7.122123209661288 0 0 0
600 200 3 -0.398 22.413994946552933 20.004033863665434 3.526441564865207 1 0 1
96 32 3 -0.398 16.032105861226228 15.579307298683924 0.20596158213325938 0 0 0
961 321 4 0.7 22.096584057647135 17.512575119126414 6.770088773963866 0 0 0
594 198 3 -0.398 20.18622408564231 17.010142216110953 4.813288598407968 1 0 0
200 67 2 0.129 20.26642140404282 17.958320313079366 0.2752304746624523 0 0 0
201 67 3 -0.398 21.324523021891594 17.49027547639835 0.2732311841972029 0 0 0
199 67 1 0.269 18.85805797146969 18.581301340295244 0.27789158729553837 0 0 0
810 270 3 -0.398 22.36550479765262 22.38163440995811 0.6092197992670415 0 -1 1
749 250 2 0.129 15.368111197537829 15.15711252153263 3.9089723357487003 0 -1 1
593 198 2 0.129 19.80750216524833 16.3844855141859 3.916755052829078 1 0 0
592 198 1 0.269 19.303412487282277 15.551718598918333 2.723443332698139 1 0 0
202 68 1 0.269 29.58564456437692 20.152195496750622 6.7033802983356905 0 0 0
1008 336 5 -0.35 26.885566493693723 18.02596105343171 0.9598042090620336 0 0 0
209 70 2 0.129 29.210793620978418 16.48765265414771 5.360976092442169 0 -1 0
963 321 5 -0.35 22.77544783658065 16.640327605093685 6.41805433826644 0 0 0
210 70 3 -0.398 28.460749886750268 17.17665878863834 5.909933234101182 0 -1 0
599 200 2 0.129 22.911396484493576 19.667302349123855 2.537577268225613 1 0 1
598 200 1 0.269 23.573452118399015 19.219103098999373 1.221370684971524 1 0 1
1007 336 5 -0.35 28.120742312628128 18.398272088746396 2.888048277976388 0 0 0
1006 336 4 0.7 27.503154403160927 18.212116571089055 1.9239262435192117 0 0 0
17 6 2 0.129 24.32767483285259 15.91835789738634 3.095336066428288 0 1 0
44 15 2 0.129 25.7565367104735 20.559763989327926 4.7399669625896275 0 -1 0
43 15 1 0.269 25.481098546148587 19.057980656196573 4.940916304369234 0 -1 0
45 15 3 -0.398 25.963473045618905 21.688051857141552 4.5889939830837765 0 -1 0
18 6 3 -0.398 25.24344213511875 16.589919726812568 2.8739225226738014 0 1 0
799 267 1 0.269 26.034127096309852 16.048935378301984 7.319929269413207 0 0 0
493 165 1 0.269 28.04691383582095 22.473120169616774 1.8905677973781803 -1 -1 0
16 6 1 0.269 23.108762433984925 15.024489948106831 3.390043808331403 0 1 0
369 123 3 -0.398 6.526087124105263 22.539590834651086 3.8966406656419434 0 0 0
366 122 3 -0.398 2.765554953232421 23.596434232284494 1.146904324686528 0 -1 0
7 3 1 0.269 5.825114889466434 25.057768718746473 5.68990480035264 1 -1 0
8 3 2 0.129 4.6841258940480595 25.761884799631765 4.932300248510174 1 -1 0
9 3 3 -0.398 3.8269023435941225 26.29088629676442 4.363112932612945 1 -1 0
365 122 2 0.129 3.68354067956618 24.264172856757227 0.923126900365378 0 -1 0
904 302 1 0.269 6.3011457179162385 28.683068384910595 2.3752065734904773 0 0 1
107 36 2 0.129 3.265570481149211 29.356010225120123 6.007245296673137 1 -1 0
364 122 1 0.269 4.905405864141796 25.152952011198032 0.625272766005336 0 -1 0
192 64 3 -0.398 0.9650403626123365 26.608843835618995 1.6385305164876707 1 0 0
682 228 1 0.269 1.3216922228820334 24.630626646913935 4.443802372555558 1 0 1
106 36 1 0.269 4.386412952635594 28.772602220670997 6.887556181791266 1 -1 0
905 302 2 0.129 7.121902296393634 27.380110609644873 2.3590921463458563 0 0 1
683 228 2 0.129 0.849001882132605 23.165345755893686 4.4103994958086785 1 0 1
191 64 2 0.129 0.3672730937680323 27.186842632352864 2.4430432157494235 1 0 0
108 36 3 -0.398 2.423482987961074 29.794323901190015 5.345868871944779 1 -1 0
906 302 3 -0.398 7.738535647886068 26.401200125240685 2.3469853981599305 0 0 1
333 111 3 -0.398 8.858552471007973 29.219584439861226 6.055548436577692 1 0 -1
616 206 1 0.269 9.134276576760147 24.35771643779608 0.48609728899725313 1 0 0
618 206 3 -0.398 11.264307886253757 23.98485513131298 2.097851012960106 1 0 0
617 206 2 0.129 10.350534721595208 24.14481083453914 1.4064164343078938 1 0 0
913 305 1 0.269 10.58620226710906 27.66075021146249 1.1153811216314504 1 0 1
293 98 2 0.129 14.454746230694761 25.913578598319308 6.017477957078983 0 -1 0
914 305 2 0.129 11.611829000773527 28.739848870375997 0.7213812643683074 1 0 1
25 9 1 0.269 10.739754042472628 26.643993271252544 4.730585199065031 0 -1 0
294 98 3 -0.398 14.834576741199792 26.28662168064283 4.990240573598918 0 -1 0
26 9 2 0.129 10.718239502819863 25.962649108807028 6.111493326669548 0 -1 0
898 300 1 0.269 13.969454662715203 25.18621551814602 1.498658258542939 1 0 0
899 300 2 0.129 14.553317322814433 24.994682377597154 0.08656072288492159 1 0 0
27 9 3 -0.398 10.702075657119703 25.45075612442426 7.1489678095516425 0 -1 0
292 98 1 0.269 13.949180987671648 25.41704761579707 7.384760213396429 0 -1 0
78 26 3 -0.398 12.717879335480985 29.38977683446134 4.330764078228857 0 0 -1
915 305 3 -0.398 12.382381033792875 29.550574291390895 0.42536968329463676 1 0 1
924 308 3 -0.398 18.48326100439104 28.423948218413216 1.590637165849008 0 -1 1
809 270 2 0.129 21.442736571176905 22.505682572123078 1.2960675652747973 0 -1 1
922 308 1 0.269 15.951079304652989 28.542697165005364 0.6698964166729648 0 -1 1
412 138 1 0.269 16.003380574698465 23.314680216736875 4.44514423692218 0 -1 0
436 146 1 0.269 21.156444791708026 28.342652660464466 3.5348037839890214 0 0 1
413 138 2 0.129 16.73128502046623 23.13593384518936 3.099854360170638 0 -1 0
414 138 3 -0.398 17.278158685241106 23.001641928383858 2.0891398228969127 0 -1 0
808 270 1 0.269 20.214505742505686 22.670794214071254 2.210281532130411 0 -1 1
441 147 3 -0.398 18.505662885278234 23.858359302702198 6.083124479859482 0 -1 0
440 147 2 0.129 18.83252233446023 24.762500256795715 6.726817757446382 0 -1 0
438 146 3 -0.398 21.225105828568374 25.64811968143082 3.6274681618273874 0 0 1
437 146 2 0.129 21.195650574713195 26.804061341327714 3.587715590392832 0 0 1
923 308 2 0.129 17.3969672607511 28.47489094411107 1.1956438225799402 0 -1 1
264 88 3 -0.398 19.33845434696341 29.199852672588452 6.032674665461468 0 -1 0
263 88 2 0.129 19.561038842448575 29.556292792066237 7.110661485230792 0 -1 0
452 151 2 0.129 24.4309399094631 27.36696850314147 0.20403822952337558 0 1 1
289 97 1 0.269 22.84012178715425 22.666713692338327 6.130488746000543 0 0 0
290 97 2 0.129 23.04548798717281 24.1890366424749 6.239839371867196 0 0 0
241 81 1 0.269 24.515461532269057 24.150822893103754 3.030620867395761 0 -1 0
242 81 2 0.129 25.17197595136196 25.523613289300204 3.2673387282179758 0 -1 0
243 81 3 -0.398 25.66521438181033 26.554988931117926 3.4451845496279097 0 -1 0
291 97 3 -0.398 23.1997793465374 25.332755897869713 6.3219943550670195 0 0 0
235 79 1 0.269 24.163348963762274 28.494469606840376 5.730828598190043 -1 0 0
190 64 1 0.269 29.571627809394453 27.95617551651031 3.5138725648100166 0 0 0
236 79 2 0.129 23.560395100087856 29.4084815500458 6.813708465007126 -1 0 0
494 165 2 0.129 27.394860405127027 22.71574408548794 0.5166828098458025 -1 -1 0
238 80 1 0.269 26.85846512209286 24.79205813869994 6.177415914638346 0 -1 0
239 80 2 0.129 27.927520245594327 24.01061757129954 6.96359132924791 0 -1 0
453 151 3 -0.398 23.597627031181148 28.009402983610023 0.6851999333148963 0 1 1
422 141 2 0.129 28.0553348705623 29.858051781306813 0.29340628318987794 0 0 0
204 68 3 -0.398 1.9355781274522648 20.67971554024521 7.917194061991868 1 0 0
82 28 1 0.269 3.527502024660391 18.296941697639454 10.276947282553426 0 1 0
83 28 2 0.129 2.661642912103379 17.358947021311355 9.415521728960444 0 1 0
753 251 3 -0.398 4.308814569236115 20.708976835506864 12.065918495315419 1 0 1
752 251 2 0.129 5.455170921247673 20.596380130884736 11.957115479218306 1 0 1
751 251 1 0.269 6.981003922196504 20.446510705545005 11.812295561509094 1 0 1
478 160 1 0.269 1.08136123751206 20.651257525279227 11.899684718447745 1 -1 -1
479 160 2 0.129 0.8278004346653198 21.580289393068558 13.101436235148459 1 -1 -1
480 160 3 -0.398 0.6373005327863059 22.278269828803793 14.004310588929446 1 -1 -1
356 119 2 0.129 6.427241808374025 15.838322929025535 13.75874159737246 0 -1 0
357 119 3 -0.398 6.253112334030466 16.787982985191487 13.121188694557693 0 -1 0
381 127 3 -0.398 2.837823952060882 15.414081709745442 12.227134963126922 0 -1 0
84 28 3 -0.398 2.0111240853316525 16.654232839160954 8.768333829280524 0 1 0
220 74 1 0.269 2.6004797712019876 17.330449388815005 14.891726429223015 0 0 0
789 263 3 -0.398 14.086098865510051 22.295054379922988 7.797942808210586 0 -1 0
968 323 5 -0.35 12.105740126891558 19.99179711634754 7.560478542850074 0 -1 0
476 159 2 0.129 14.783331039727143 16.378847740609526 8.196044162188395 0 -1 0
657 219 3 -0.398 13.361574420759386 20.19855806405097 10.557639979665606 1 -1 0
723 241 3 -0.398 9.79241640129957 18.368159138788567 11.036679056113021 0 0 0
656 219 2 0.129 12.998075362535413 20.0721547306126 11.648758503000812 1 -1 0
721 241 1 0.269 10.255799684650725 16.782386412634295 8.904916922641444 0 0 0
722 241 2 0.129 9.991205596270756 17.68787028296339 10.122163376310795 0 0 0
655 219 1 0.269 12.514247748304715 19.903908288525223 13.101068378485873 1 -1 0
967 323 4 0.7 11.708161202096365 20.891464043873093 8.175401642168893 0 -1 0
374 125 2 0.129 9.299346140948039 22.046600318962597 14.639806071163116 0 0 0
375 125 3 -0.398 9.971433524211758 21.289371856994396 14.079848389151591 0 0 0
475 159 1 0.269 14.306583463204868 17.838022568027228 8.319009894458167 0 -1 0
346 116 1 0.269 10.406955115434547 15.191056497736376 12.91141559929723 0 -1 0
334 112 1 0.269 14.81216605776947 15.104812445830435 14.492365831500322 -1 0 0
335 112 2 0.129 14.630295951757354 16.607629821940662 14.209411420687369 -1 0 0
336 112 3 -0.398 14.493657177305394 17.7366945649014 13.996828139316849 -1 0 0
969 323 5 -0.35 11.310582277301176 21.79113097139864 8.790324741487712 0 -1 0
477 159 3 -0.398 15.141510874815632 15.282571587802853 8.10366016722987 0 -1 0
802 268 1 0.269 18.875167143974824 16.40019924247316 7.9312181587587505 0 0 0
340 114 1 0.269 19.298492078094785 20.13776399105916 13.931642897501863 0 0 0
1015 339 4 0.7 15.218706963689263 21.48592490841772 14.306737602811245 0 0 1
788 263 2 0.129 15.234447053055495 22.15431672768632 7.809705180593469 0 -1 0
803 268 2 0.129 17.99179098448072 17.65815045742413 7.837381589977954 0 0 0
787 263 1 0.269 16.76293124391114 21.96699089843441 7.825361233721946 0 -1 0
1017 339 5 -0.35 16.10904056707711 21.321716421133825 13.581519258184086 0 0 1
804 268 3 -0.398 17.328111623094564 18.60324757151393 7.766882297718617 0 0 0
972 324 5 -0.35 16.73666653567221 17.38479842106481 10.571366770424259 1 -1 0
214 72 1 0.269 18.559822156056534 16.119667547793703 13.5625572574319 0 0 0
341 114 2 0.129 20.630088702526272 20.46657355978556 13.231403868798854 0 0 0
970 324 4 0.7 17.22639545701494 18.422102631207807 10.743893751561735 1 -1 0
971 324 5 -0.35 17.71612437835767 19.4594068413508 10.916420732699212 1 -1 0
342 114 3 -0.398 21.63051551711539 20.71360776174429 12.705315195935622 0 0 0
651 217 3 -0.398 20.437697344508614 21.548154169293728 8.175746413591579 0 -1 0
650 217 2 0.129 20.35629622581728 22.21179010961058 9.119997543639263 0 -1 0
385 129 1 0.269 22.371101545165704 19.256367147636574 10.315996468160806 0 0 0
537 179 3 -0.398 21.86294321042412 16.010085549221866 12.141706158177374 0 -1 1
215 72 2 0.129 19.603704379683702 16.4971424733684 14.629994648457018 0 0 0
984 328 5 -0.35 21.696615833655823 15.123400669714618 9.46404814453496 0 1 1
741 247 3 -0.398 27.990026006400015 15.020072841270151 13.622631283263496 0 1 0
740 247 2 0.129 27.447483619365887 15.420465030401147 14.56283490650367 0 1 0
52 18 1 0.269 26.848436217982048 21.2228119506392 14.418370220959503 0 0 0
536 179 2 0.129 23.011569896140077 15.877594051141287 12.183559948892585 0 -1 1
387 129 3 -0.398 24.30105424399216 18.529095776078538 8.57813343201291 0 0 0
535 179 1 0.269 24.540424776004013 15.701244088268258 12.239268538090009 0 -1 1
386 129 2 0.129 23.47311383889679 18.841091688904882 9.323668297724113 0 0 0
484 162 1 0.269 27.620099357191275 17.45334312496196 11.274979791183538 0 -1 1
486 162 3 -0.398 29.558887454249977 17.798172371873086 13.117804390860057 0 -1 1
485 162 2 0.129 28.727156705901105 17.650242287083998 12.327241520327712 0 -1 1
6 2 3 -0.398 25.266904353472075 18.43110767900248 14.006047918751378 0 0 0
5 2 2 0.129 24.312486260320064 18.792501931949076 14.551143596042252 0 0 0
53 18 2 0.129 27.35510605005195 21.06506939185137 12.972685965523176 0 0 0
472 158 1 0.269 26.23836739724565 21.101229898780662 8.90997498998593 0 0 0
473 158 2 0.129 25.067670433021455 21.9715863673561 9.403481054354378 0 0 0
54 18 3 -0.398 27.735766436873295 20.946557612294537 11.886545261925884 0 0 0
743 248 2 0.129 1.2982755467852976 28.353618597915975 13.702197961906739 0 0 0
844 282 1 0.269 0.17310109544367291 29.703611194301537 8.874694523327987 1 -1 0
390 130 3 -0.398 4.406960305783615 24.14286603736915 8.578516461284034 0 0 0
938 313 2 0.129 5.481571661980601 29.119490429336278 13.854249824375362 0 -1 0
742 248 1 0.269 1.9070233881243088 29.734883800955657 14.007374147965374 0 0 0
388 130 1 0.269 1.7745978585840507 23.62466934221609 8.854105161538806 0 0 0
389 130 2 0.129 3.277689504370972 23.92056215294494 8.696742685308791 0 0 0
1033 345 4 0.7 3.2562916151338306 27.31519714472239 10.421899413229205 0 0 0
1034 345 5 -0.35 3.68585176872576 27.535082422645242 11.4767589010282 0 0 0
500 167 2 0.129 4.947602235740161 24.070395415903437 13.587661191841894 0 -1 0
499 167 1 0.269 3.7139356383677233 24.035815549711643 12.666536358075062 0 -1 0
501 167 3 -0.398 5.874454348181658 24.09637522446442 14.279701083184893 0 -1 0
1035 345 5 -0.35 2.8267314615418946 27.09531186679954 9.367039925430214 0 0 0
937 313 1 0.269 5.879882445309527 27.651781633692934 14.096694480066661 0 -1 0
720 240 3 -0.398 6.235197760417105 29.08325875134195 9.850386710428914 0 -1 0
744 248 3 -0.398 0.840924084168918 27.315875844723177 13.472919489653593 0 0 0
136 46 1 0.269 7.5093524915740595 25.59214590024712 9.617185312733668 1 -1 0
137 46 2 0.129 7.526619202846552 24.425649757306246 10.622465676208488 1 -1 0
138 46 3 -0.398 7.539591660601277 23.549262720044826 11.37773150772821 1 -1 0
384 128 3 -0.398 13.353746183395327 24.18834755435154 13.127443831963362 0 -1 -1
382 128 1 0.269 10.970484073801355 23.503310022070707 12.06697492796682 0 -1 -1
383 128 2 0.129 12.331338226109372 23.89446975500081 12.672507783789834 0 -1 -1
754 252 1 0.269 11.287719959791184 27.46196783006536 9.773239437072913 0 0 0
755 252 2 0.129 10.57403903212786 27.135788487450213 11.098330592405505 0 0 0
756 252 3 -0.398 10.037851478032751 26.89073037095298 12.093869856509272 0 0 0
529 177 1 0.269 13.272288483185173 27.593571816305264 13.824640133933006 0 -1 0
530 177 2 0.129 14.771868233582728 27.51405954719695 14.166017302558252 0 -1 0
135 45 3 -0.398 14.259803191843769 27.928835014720182 10.287007252088857 0 -1 0
439 147 1 0.269 19.267581584019666 25.965937654638424 7.5835918693598 0 -1 0
38 13 2 0.129 22.143796735332494 26.500081722014468 10.373734394882224 0 0 1
649 217 1 0.269 20.24794901511318 23.09510847442298 10.376822729701004 0 -1 0
531 177 3 -0.398 15.89850055255024 27.454322082678566 14.422493525999421 0 -1 0
645 215 3 -0.398 16.481113792361345 25.043707316245055 9.639394647578907 0 -1 0
134 45 2 0.129 15.372608430732193 28.244580314187413 10.262139478426493 0 -1 0
133 45 1 0.269 16.853783943167947 28.664846313478286 10.229039762402259 0 -1 0
643 215 1 0.269 16.198799803496808 24.346320519102953 12.229328906757239 0 -1 0
644 215 2 0.129 16.360002451940037 24.7445317417944 10.750463960841543 0 -1 0
934 312 1 0.269 19.358708524978706 27.01874132826962 13.169998160278059 0 0 0
935 312 2 0.129 19.84070252579429 25.57542143032558 13.406872505401495 0 0 0
936 312 3 -0.398 20.2028239926408 24.49105706544165 13.584835893263707 0 0 0
39 13 3 -0.398 21.007072363241814 26.68470014423054 10.48519174131315 0 0 1
37 13 1 0.269 23.65680929628292 26.254349336350895 10.225381487791797 0 0 1
871 291 1 0.269 27.813155477558436 24.571758397997232 10.346148885049857 -1 -1 1
925 309 1 0.269 27.786922168164484 27.81922949624054 13.945207544877343 0 0 0
932 311 2 0.129 26.2205614700218 27.88500960253806 8.850469919145416 -1 0 0
933 311 3 -0.398 26.00652186356186 26.852692016931403 8.37386059347862 -1 0 0
498 166 3 -0.398 25.651568947592366 24.46969492913144 13.655302864028927 0 0 0
496 166 1 0.269 23.385090602899247 23.50141897719441 12.560165158562377 0 0 0
931 311 1 0.269 26.505454291066144 29.25905375278374 9.48485052547806 -1 0 0
497 166 2 0.129 24.679260662531213 24.05430921300569 13.185494067134305 0 0 0
474 158 3 -0.398 24.188127324185487 22.62548405186375 9.774251519597424 0 0 0
240 80 3 -0.398 28.730699971497703 23.423522287869503 7.55424389723704 0 -1 0
872 291 2 0.129 28.72392299938423 25.647841568571902 9.726352522368934 -1 -1 1
873 291 3 -0.398 29.408181455716978 26.45630145711404 9.260700320017097 -1 -1 1
927 309 3 -0.398 25.50939041257667 28.321829597034633 12.590936065088291 0 0 0
832 278 1 0.269 22.688433167635978 29.998010139787567 10.893343393886255 0 -1 0
926 309 2 0.129 26.486440557632328 28.106216576412173 13.171912002098278 0 0 0
328 110 1 0.269 1.13363907742523 16.019623438522064 19.71991145508518 1 0 0
1051 351 1 0.269 3.308599694851538 19.059538015083305 19.98777098383846 1 0 0
42 14 3 -0.398 6.396188804428845 18.864932036012288 20.843295373214552 1 0 0
41 14 2 0.129 7.229980937948502 18.358585894797002 21.46543142212818 1 0 0
1052 351 2 0.129 2.5823289310149597 19.71167703641907 21.178923985953464 1 0 0
597 199 3 -0.398 6.1151537673073015 21.50261971753398 16.672237447690655 0 0 0
1053 351 3 -0.398 2.036682649353322 20.201628236214834 22.07383568949051 1 0 0
596 199 2 0.129 5.168558052042222 21.282880410071325 16.0442882550028 0 0 0
222 74 3 -0.398 4.434384175484253 16.798180316025213 16.79627185270417 0 0 0
221 74 2 0.129 3.6476480257791795 17.02652118262432 15.979231046264534 0 0 0
359 120 2 0.129 0.790291156715064 19.93015830735422 16.732187828501587 1 0 0
360 120 3 -0.398 1.6415858214849117 20.102024198620775 17.496653988088116 1 0 0
992 331 5 -0.35 0.39418618842905306 17.575491020281824 22.48991157285618 1 0 -1
571 191 1 0.269 7.232909470794907 18.09775055147188 16.71213121597077 0 1 0
265 89 1 0.269 6.825663519402066 21.729929853449203 19.66973110875245 0 -1 0
595 199 1 0.269 3.908612156183774 20.990401124425265 15.208469969143422 0 0 0
573 191 3 -0.398 9.189545015238647 18.73098600165615 18.45695189754425 0 1 0
572 191 2 0.129 8.350157797989329 18.459331045829973 17.708432235482512 0 1 0
218 73 2 0.129 11.709449034451843 17.425676412331008 15.807037044477752 0 0 0
427 143 1 0.269 11.691378550230427 18.471532405370613 20.527767205318415 0 0 -1
738 246 3 -0.398 12.651249568309236 20.97808632381364 18.943354439996337 0 0 0
428 143 2 0.129 12.604773311849392 17.66796974261842 19.583523033253755 0 0 -1
429 143 3 -0.398 13.29100561002676 17.064254157680576 18.8741136130727 0 0 -1
217 73 1 0.269 11.48920624216347 18.81810421013137 16.42690633744089 0 0 0
183 61 3 -0.398 9.931799427913223 20.936679083750583 21.75759701932186 1 0 0
219 73 3 -0.398 11.874917158268493 16.379547216191387 15.341330049699604 0 0 0
277 93 1 0.269 13.8727009935593 21.143678291698357 22.218701175405293 0 0 0
1025 342 5 -0.35 10.669775406768993 15.520251929458754 20.682803042388517 0 0 1
737 246 2 0.129 11.89286413143535 21.830312384732327 18.750452210284696 0 0 0
182 61 2 0.129 9.423223878391461 21.836188800447683 22.278060447427972 1 0 0
40 14 1 0.269 8.339782049115547 17.684624738814687 22.293512247821344 1 0 0
1016 339 5 -0.35 14.32837336030142 21.65013339570162 15.031955947438403 0 0 1
253 85 1 0.269 15.41853725399936 19.418905975265822 17.764187605579753 -1 -1 -1
255 85 3 -0.398 17.506021676526714 17.846742893760393 17.09746350157681 -1 -1 -1
254 85 2 0.129 16.610500921293436 18.52119327763202 17.38348492847018 -1 -1 -1
841 281 1 0.269 20.08646563176405 17.63246443425629 18.65636748812677 0 -1 1
842 281 2 0.129 21.109377937254717 17.355683261080234 19.77379426311002 0 -1 1
893 298 2 0.129 15.921544846271555 15.638738453242146 20.275202863695377 0 0 0
892 298 1 0.269 16.41956392150468 17.08389109355717 20.462581749631234 0 0 0
216 72 3 -0.398 20.38797173860359 16.780738894725488 15.431958974051861 0 0 0
363 121 3 -0.398 21.997304684087943 21.096010439519883 18.615389250045308 0 0 -1
361 121 1 0.269 19.66003018125799 22.10911145255334 19.50115628251311 0 0 -1
362 121 2 0.129 20.994625188435645 21.53062589079156 18.995379037425824 0 0 -1
321 107 3 -0.398 17.055918985185787 20.710272766600553 20.69886825484389 0 0 0
843 281 3 -0.398 21.877890623912318 17.147737925129135 20.613315547951334 0 -1 1
320 107 2 0.129 17.279581481767494 21.308347497392187 21.663715757826235 0 0 0
329 110 2 0.129 29.95396630578021 16.026613790424516 18.73000070818898 0 0 0
163 55 1 0.269 24.99256054938625 15.17342299738716 20.055799366209495 0 0 0
358 120 1 0.269 29.657193677246124 19.701399904112648 15.714661565957703 0 0 0
330 110 3 -0.398 29.067679684485864 16.031865632730447 17.986282049644238 0 0 0
950 317 2 0.129 23.177894796842008 15.519864054956198 16.82368750227111 0 0 0
409 137 1 0.269 28.735373474524216 20.198548158066238 19.934106867156114 -1 0 0
411 137 3 -0.398 27.16574033223571 20.32453655996183 17.74454350401194 -1 0 0
410 137 2 0.129 27.839105384378016 20.27048814283421 18.68385563273193 -1 0 0
80 27 2 0.129 24.867448772153182 20.05232780167916 20.308848767116256 -1 0 0
79 27 1 0.269 24.314355289319995 19.229330444385138 19.13056062360685 -1 0 0
81 27 3 -0.398 25.28298718750253 20.67064464738642 21.194095119090534 -1 0 0
951 317 3 -0.398 23.59570103382226 16.436464294474696 17.392836822972114 0 0 0
739 247 1 0.269 26.725344227807934 15.953398454136433 15.814272745561473 0 1 0
1010 337 5 -0.35 24.562439824019453 21.52324396398684 16.745568196771103 0 -1 -1
4 2 1 0.269 23.042128556383947 19.273527990322247 15.276681489756987 0 0 0
735 245 3 -0.398 27.509094356505535 17.945465281017494 22.28346782836174 0 0 -1
920 307 2 0.129 7.088103973738695 29.00785618922512 17.595162486161403 0 0 0
946 316 1 0.269 4.773929193561747 25.31873057705153 17.42619777224757 0 -1 0
947 316 2 0.129 3.5387185930712945 25.797492458124296 16.640932317979523 0 -1 0
145 49 1 0.269 5.046910105172137 25.35583127032846 21.499227402643765 1 0 0
406 136 1 0.269 2.296482594949929 28.44411722639548 18.3563915436038 0 0 -1
407 136 2 0.129 1.2723389767810036 28.74361785046701 19.466810034779485 0 0 -1
146 49 2 0.129 4.45507868604944 23.94944379715826 21.290877104709978 1 0 0
921 307 3 -0.398 6.3598413079770415 28.265810885144315 17.087568892477275 0 0 0
72 24 3 -0.398 0.743103106765493 25.519527877489192 20.01866895277585 1 -1 -1
71 24 2 0.129 0.9152465966285748 24.395461369193274 19.805384860950202 1 -1 -1
147 49 3 -0.398 4.01043650947479 22.892826715042737 21.134343796457124 1 0 0
948 316 3 -0.398 2.6107064730924288 26.157185637605593 16.050963402013203 0 -1 0
408 136 3 -0.398 0.5029012065073422 28.968632280370095 20.301066005097837 0 0 -1
70 24 1 0.269 1.1443744915197986 22.89929678598178 19.52149765143291 1 -1 -1
373 125 1 0.269 8.404778664520961 23.05449299954257 15.385125717055729 0 0 0
266 89 2 0.129 7.539073987630792 23.001133547314915 19.173055487725833 0 -1 0
267 89 3 -0.398 8.075058345903933 23.956187231602335 18.79990373868181 0 -1 0
442 148 1 0.269 9.961968685681525 26.65404285491118 15.053593155692663 0 -1 0
736 246 1 0.269 10.88343148425662 22.964649579040696 18.493693840573428 0 0 0
444 148 3 -0.398 11.57944940182602 25.029535945961708 16.474347334175196 0 -1 0
309 103 3 -0.398 9.66941812962972 25.825595258634397 21.687642285566078 0 0 0
308 103 2 0.129 10.14670841005664 26.567032179799817 20.93856666845919 0 0 0
307 103 1 0.269 10.781995386597222 27.553905869164332 19.94152565692539 0 0 0
97 33 1 0.269 14.459928185315707 24.288080510204306 16.80121642986903 -1 0 0
717 239 3 -0.398 11.279045220019537 29.337561192953363 22.24633936660524 0 -1 0
443 148 2 0.129 10.88555797113296 25.72644157950065 15.864850639883656 0 -1 0
642 214 3 -0.398 14.051962096402729 27.39995384151183 21.062659837394495 0 -1 0
540 180 3 -0.398 11.31253496219704 29.678238008390906 15.410639393363054 0 -1 0
298 100 1 0.269 13.396108345151386 29.426239711557997 18.442390271876434 0 -1 0
919 307 1 0.269 8.057442353404156 29.99553965360233 18.270784036959633 0 0 0
1040 347 5 -0.35 22.16850831886391 23.30277286783506 15.395677332346915 -1 0 0
98 33 2 0.129 15.814558074315812 23.562761751311932 16.69879298614206 -1 0 0
99 33 3 -0.398 16.832289750661992 23.01783070972851 16.621842385887447 -1 0 0
1039 347 4 0.7 21.512630198296385 23.743085547642384 16.245117521508202 -1 0 0
641 214 2 0.129 15.029026947112358 26.872778811493777 20.73696095002582 0 -1 0
1041 347 5 -0.35 20.856752077728856 24.18339822744971 17.0945577106695 -1 0 0
640 214 1 0.269 16.329528131289397 26.171093810432584 20.3034464413415 0 -1 0
876 292 3 -0.398 16.26423535001852 27.350073668772943 17.295973098107005 0 -1 0
875 292 2 0.129 17.403621747257155 27.252686392835983 17.1200090214508 0 -1 0
874 292 1 0.269 18.920177539605902 27.12306115088013 16.885795816567008 0 -1 0
555 185 3 -0.398 20.123578306475075 24.491374980772665 21.58132407434039 0 0 0
288 96 3 -0.398 20.971857115291723 27.590454922651944 21.502215643489485 0 0 -1
816 272 3 -0.398 21.58822024479729 28.26343754958951 15.379871679810332 0 -1 0
287 96 2 0.129 20.2867728505311 28.51265303191406 21.639544436725057 0 0 -1
286 96 1 0.269 19.37490615413408 29.740125018313073 21.822332977418906 0 0 -1
815 272 2 0.129 22.50427311951772 27.560732545067495 15.455381992589771 0 -1 0
943 315 1 0.269 22.981990546974053 24.999529334341783 19.64032911996111 0 -1 0
1028 343 5 -0.35 27.512472502665062 22.845007176260665 21.28378740261125 0 0 0
944 315 2 0.129 23.93954414145431 26.093833925409847 19.133191490058586 0 -1 0
814 272 1 0.269 23.723565623467124 26.625412141468615 15.555888372607345 0 -1 0
1027 343 4 0.7 26.492131589621792 23.13947810377785 20.817106254484422 0 0 0
1011 337 5 -0.35 25.060134896436004 23.786659513190035 16.637634575882956 0 -1 -1
1029 343 5 -0.35 25.471790676578514 23.433949031295032 20.350425106357587 0 0 0
1009 337 4 0.7 24.811287360227727 22.654951738588437 16.69160138632703 0 -1 -1
945 315 3 -0.398 24.658952913411234 26.915983543504485 18.75217964733312 0 -1 0
987 329 5 -0.35 27.721701888798343 27.055604435231896 17.230911072508725 0 -1 0
260 87 2 0.129 29.091350669598896 23.87442574896527 16.392165364856062 -1 0 0
261 87 3 -0.398 28.494214702827257 23.222542180997458 17.138573732307567 -1 0 0
985 329 4 0.7 27.592562635449006 26.354176864945014 18.145745711602622 0 -1 0
986 329 5 -0.35 27.463423382099677 25.652749294658136 19.060580350696526 0 -1 0
259 87 1 0.269 29.88615567290773 24.742101370979462 15.398674538688978 -1 0 0
316 106 1 0.269 29.06085631177299 26.783640381227237 22.4813947101198 0 -1 -1
858 286 3 -0.398 26.224728260222076 29.680028403201096 20.378603180818853 -1 -1 0
206 69 2 0.129 6.555579342334295 20.36976096166168 24.40135705330348 1 0 0
205 69 1 0.269 5.256943768230812 20.598391606255753 23.60582347511344 1 0 0
541 181 1 0.269 3.6380758142015392 19.258248082090624 28.800121590984233 0 0 0
542 181 2 0.129 3.2429432259175246 20.527040652293262 28.021895626708464 0 0 0
543 181 3 -0.398 2.9460806254989493 21.48028286250394 27.43721547043115 0 0 0
377 126 2 0.129 7.249677875904501 22.484396948622148 28.250334161446347 1 0 -1
881 294 2 0.129 6.001909374241541 17.34554376203494 26.832504526473485 1 0 0
882 294 3 -0.398 4.917364779964674 17.215835344393565 26.45094489886805 1 0 0
880 294 1 0.269 7.445469162648088 17.51818936546425 27.340371273675192 1 0 0
283 95 1 0.269 5.0636629492776635 15.264014904455097 23.639911227368493 0 0 -1
33 11 3 -0.398 1.8937141618278235 15.04237218157867 23.088282882411807 1 -1 -1
103 35 1 0.269 0.2062363447632254 15.013521722999442 29.05027404330054 1 0 -1
279 93 3 -0.398 13.946308612141276 18.53513937696948 22.899814711344405 0 0 0
278 93 2 0.129 13.914731298570885 19.654189997785682 22.60762028750994 0 0 0
207 69 3 -0.398 7.53124256261853 20.197991055301063 24.999040397437177 1 0 0
378 126 3 -0.398 7.614904579514642 21.70035065154366 29.018793567665888 1 0 -1
34 12 1 0.269 10.947920759830266 18.766302340734512 25.65073071920954 0 1 -1
35 12 2 0.129 11.663115789639198 17.497679733064157 26.15142298861693 0 1 -1
819 273 3 -0.398 10.994189700814244 19.658415898863673 28.676238705837015 0 0 0
448 150 1 0.269 13.907273399301866 22.164415536860485 27.415559981989944 -1 0 0
36 12 3 -0.398 12.200440886709934 16.54456521548325 26.527592440373002 0 1 -1
818 273 2 0.129 11.24019678234764 20.113926489469446 29.7109558738021 0 0 0
449 150 2 0.129 13.292949144437225 22.1118015934053 26.004376973717118 -1 0 0
450 150 3 -0.398 12.831408129581131 22.072272806017217 24.944157012306952 -1 0 0
174 58 3 -0.398 9.442640141221444 15.430121467177365 24.385679068274428 0 0 0
820 274 1 0.269 14.02481175413532 15.470328863736809 23.853307158816524 0 -1 0
614 205 2 0.129 22.10563941919464 21.50685902050303 23.000603517422405 0 -1 0
615 205 3 -0.398 21.22957751611093 20.792607417375084 23.24760390081241 0 -1 0
786 262 3 -0.398 17.64662748868293 15.956190504689179 23.71508482467823 0 -1 0
785 262 2 0.129 18.569081548166352 16.582002662222052 23.40510635506017 0 -1 0
319 107 1 0.269 17.577282644028372 22.10440202238711 22.94795530371458 0 0 0
483 161 3 -0.398 16.547817825261745 20.57463214643133 26.18756118424785 0 -1 0
482 161 2 0.129 15.926313724765489 19.611066130701996 26.342229171879744 0 -1 0
883 295 1 0.269 19.779954678296384 20.255946601861588 25.95700300974324 0 0 0
481 161 1 0.269 15.099074040440303 18.328532280898045 26.54809667486429 0 -1 0
784 262 1 0.269 19.796894211610145 17.414976493337548 22.992516170780295 0 -1 0
884 295 2 0.129 19.280773212291614 19.015775427359685 26.72145923604585 0 0 0
226 76 1 0.269 22.188159675195053 16.927347930863757 26.776432222356533 0 0 -1
885 295 3 -0.398 18.90573882516984 18.084036434568322 27.295794206066702 0 0 0
22 8 1 0.269 17.097808127015444 22.129813368221818 29.206142500328173 0 0 -1
561 187 3 -0.398 15.557222385775349 19.54271753089644 29.98244845203037 0 0 0
579 193 3 -0.398 23.026861610282143 15.113519337323517 23.762335349171174 0 0 0
456 152 3 -0.398 29.28208343814179 21.921058596514342 26.122873115658845 -1 -1 -1
993 331 5 -0.35 29.325175148204558 17.45746811926796 24.54555891389548 0 0 -1
19 7 1 0.269 29.09949585251201 18.763361491400623 27.287451267959277 -1 -1 0
228 76 3 -0.398 24.873831487585075 17.147654100551538 26.88797193608035 0 0 -1
455 152 2 0.129 29.414245616238816 21.74423029928913 24.98712934526872 -1 -1 -1
454 152 1 0.269 29.59015724482085 21.508866792178633 23.475421993150494 -1 -1 -1
1048 350 4 0.7 25.887407320811985 15.40337790697992 29.34161981668975 0 0 0
991 331 4 0.7 29.859680668316805 17.51647956977489 23.51773524337583 0 0 -1
227 76 2 0.129 23.721691225465957 17.053143815668793 26.84012193653328 0 0 -1
733 245 1 0.269 25.238185044657158 18.371174560561105 23.674708823542804 0 0 -1
21 7 3 -0.398 29.785402154731454 19.349164480161765 29.82913897555358 -1 -1 0
20 7 2 0.129 29.491151657264677 19.09785782165356 28.738767200363885 -1 -1 0
625 209 1 0.269 25.351037527029256 20.718600493834465 26.91424216694447 0 0 0
734 245 2 0.129 26.534885207892792 18.128092509950367 22.88030350927553 0 0 -1
626 209 2 0.129 23.992199965272878 20.280254811969932 26.337168909938303 0 0 0
627 209 3 -0.398 22.971307069849416 19.95092627046522 25.903614521395355 0 0 0
1049 350 5 -0.35 26.659651215058336 16.164640942216906 28.929651421080486 0 0 0
613 205 1 0.269 23.27170279927148 22.45754827617894 22.67183896217555 0 -1 0
376 126 1 0.269 6.763550716388839 23.527984932633277 27.22749277373841 1 0 -1
903 301 3 -0.398 3.8258101439696817 29.640825972848894 29.369933716970202 0 -1 0
902 301 2 0.129 2.969591699714269 28.914729876729137 29.090070473730666 0 -1 0
64 22 1 0.269 2.7535288191380065 28.69486536025558 23.23730223482473 0 0 0
318 106 3 -0.398 0.7583612537660438 25.554131554406762 24.17862598978656 1 -1 -1
828 276 3 -0.398 4.295168030474314 25.202041537502094 27.218584948492904 0 0 0
827 276 2 0.129 3.769362873878997 24.61134528352464 26.374040175946323 0 0 0
826 276 1 0.269 3.0695012134150486 23.825111721618608 25.249926995547238 0 0 0
65 22 2 0.129 3.938146666981216 28.374391466719658 24.167666162614854 0 0 0
66 22 3 -0.398 4.828148517601084 28.133619846705972 24.866647373298733 0 0 0
513 171 3 -0.398 6.323462828646566 24.850390603793404 24.420959059230928 0 0 0
415 139 1 0.269 6.352679907563735 27.675340532092978 28.203727800359125 1 0 -1
586 196 1 0.269 0.5265991182380402 23.71889565142997 28.530661378559007 0 -1 -1
512 171 2 0.129 7.139289099841219 25.661653570035345 24.543142915910018 0 0 0
317 106 2 0.129 0.03013981591437051 26.081584914670493 23.450521951753768 1 -1 -1
901 301 1 0.269 1.8299405293138098 27.948275263052015 28.717564514708297 0 -1 0
281 94 2 0.129 9.585703866432672 29.859187614361097 26.947019100209886 1 0 -1
955 319 1 0.269 7.5172633473898225 29.848040167401432 22.54896948488854 0 -1 0
416 139 2 0.129 7.597515029787614 26.769847819734405 28.158247405205184 1 0 -1
181 61 1 0.269 8.746295316365954 23.033461889223428 22.970812114915795 1 0 0
282 94 3 -0.398 9.48518706627763 29.03732672582936 26.138879228166147 1 0 -1
900 300 3 -0.398 14.99197258108379 24.85078377784713 29.02565367823796 1 0 -1
716 239 2 0.129 12.140775425169108 29.099739824394383 22.980853525889657 0 -1 0
1004 335 5 -0.35 9.76025770651995 23.75560311149612 26.082110263314632 0 0 0
1003 335 4 0.7 10.334160982390358 23.877916245237255 27.082747324021295 0 0 0
49 17 1 0.269 12.627515294558485 25.24303300839464 23.05261595751671 0 0 -1
50 17 2 0.129 11.97608192461669 25.53365127406606 24.41745132787669 0 0 -1
1005 335 5 -0.35 10.908064258260767 24.00022937897839 28.08338438472796 0 0 0
511 171 1 0.269 8.225177135830643 26.741467716977944 24.705773114082707 0 0 0
51 17 3 -0.398 11.48666087979678 25.751992399638677 25.442850369114677 0 0 -1
417 139 3 -0.398 8.53275804044542 26.089552320903973 28.12407804339148 1 0 -1
715 239 1 0.269 13.287762906526357 28.78319279969185 23.958512821739262 0 -1 0
518 173 2 0.129 13.977785131674992 27.87008851924465 27.41802199040362 0 0 0
517 173 1 0.269 12.527923027283101 27.39124675595074 27.61854741017562 0 0 0
465 155 3 -0.398 21.839047177824863 29.671247008083984 25.35537244454996 0 0 -1
519 173 3 -0.398 15.067064647766827 28.229841714134942 27.267367502951533 0 0 0
554 185 2 0.129 20.21272753398787 24.82502793234775 22.68557817695359 0 0 0
553 185 1 0.269 20.331387698525223 25.26912952735694 24.155371883111183 0 0 0
23 8 2 0.129 18.169233999285137 22.823040071387684 28.344119682619933 0 0 -1
24 8 3 -0.398 18.974194865659182 23.34386039318178 27.696483059185883 0 0 -1
63 21 3 -0.398 15.657742746816732 24.515003353460305 23.702329441773323 1 -1 -1
61 21 1 0.269 16.721969616747952 25.318768806364417 26.046511871966878 1 -1 -1
1046 349 5 -0.35 18.29573923898942 28.032361042622934 24.563310910741073 0 -1 0
62 21 2 0.129 16.114290944262198 24.859814858469598 24.707972404967222 1 -1 -1
113 38 2 0.129 19.6752302879946 26.660274135481398 28.607566396900598 -1 0 -1
114 38 3 -0.398 19.330739394054635 27.09717977997104 27.59312641257145 -1 0 -1
112 38 1 0.269 20.133757493411665 26.07874026122553 29.957814949940257 -1 0 -1
1045 349 4 0.7 17.877151012213616 28.90896314975627 25.197308262608065 0 -1 0
463 155 1 0.269 21.849915731307544 29.050352043980215 27.979906749546227 0 0 -1
1047 349 5 -0.35 17.45856278543781 29.78556525688961 25.831305614475056 0 -1 0
464 155 2 0.129 21.843709734880655 29.404886061303092 26.481285010690367 0 0 -1
423 141 3 -0.398 28.85828700310077 29.409197430726675 29.59166085583235 0 0 -1
667 223 1 0.269 23.288736909787996 27.78348673695696 23.430413417060873 0 -1 0
669 223 3 -0.398 25.902131492360205 27.867435406027273 24.09142050986946 0 -1 0
495 165 3 -0.398 26.90497350946932 22.898027118385954 29.48448480297894 -1 -1 -1
467 156 2 0.129 23.248948053814857 24.91354526090087 27.109106433296546 0 -1 -1
468 156 3 -0.398 23.240446623062972 25.94832312464771 26.591601362429437 0 -1 -1
587 196 2 0.129 29.56365423446681 24.911034963787674 28.37853968138446 -1 -1 -1
118 40 1 0.269 28.854572377025903 28.624468285543728 26.29546100354292 -1 0 -1
451 151 1 0.269 25.540103118239426 26.511869886096036 29.563598278063612 0 1 0
850 284 1 0.269 26.909233571193372 25.48997909243929 25.944943624343768 0 0 0
852 284 3 -0.398 26.334914654776984 23.71761857878188 23.994891063031496 0 0 0
466 156 1 0.269 23.26026370062377 23.53622641027846 27.79792044292088 0 -1 -1
119 40 2 0.129 29.79319042109827 29.71756366993298 25.751642423528324 -1 0 -1
668 223 2 0.129 24.780997813444355 27.831421831643013 23.80785165322151 0 -1 0
588 196 3 -0.398 28.84019499386726 25.806687680929148 28.26425084785787 -1 -1 -1
851 284 2 0.129 26.581294701604484 24.47795269606094 24.831454212248513 0 0 0

Velocities

725 0.0010087575511728505 -0.007607567760948698 -0.0023981672203639026
197 -0.003172984102330683 -0.002328590324276663 -0.0007233461246529028
726 0.0008968272215246417 -0.00921581450082919 -0.0023664790835711057
252 -0.0021279343660246253 -0.002407883061193106 0.0013702098423093417
724 0.00115774001241593 -0.005466945479690299 -0.002440345034245416
198 -0.0033788115153626495 -0.003911040951195851 -0.0003253676012676582
863 0.0018160828846919322 -0.0032056838090198827 0.002118118016113184
864 -0.0014507279106775353 -0.0017367952720110118 0.003598938876704493
223 -0.0012096225049711097 -0.0004221703920153331 0.006027187612891767
862 0.0061643012294360765 -0.005160816347475957 0.00014710321463467764
224 0.001025299428581895 -0.00011337617938220898 0.0038324542945642193
230 0.0016086679404675485 0.0051146831618392955 -0.003758958065058083
251 -0.0034326619207254907 -0.002357724456451524 0.0025113698002363844
349 -0.008873929588962355 0.005846828224094494 -0.007212162951672294
196 -0.0028990219449674796 -0.0002223034051275247 -0.001253066890437931
274 5.499103786388304e-05 -0.0007727443387206644 0.002833882407008368
459 0.00010872035103536332 -0.0035149446412009724 -0.0039990279027907645
77 0.003729782505649183 -0.0014144396467667924 -0.0028825563025917404
275 -0.0005659415008648963 0.00022566635128751445 -0.00047799403507832846
458 5.070765283553881e-06 -0.0035480525448514347 -0.004490887258654854
276 -0.0010324473108059274 0.0009757710060533914 -0.0029662025048798205
211 0.002474934682926446 -0.0005968274402946326 -0.000197210207726485
76 -0.002525211905133962 -0.002998655687345324 -0.0034740579709342865
212 0.001707830673559699 -0.0015643631897748382 0.0004562564013387632
213 0.0011315064275614363 -0.0022912715418193803 0.0009472050160715493
457 -0.00013288978964971058 -0.0035921201089151454 -0.005145566090142063
30 -0.00015294949277019616 0.00022726555420530452 0.002288417718707407
29 -0.000778888150340919 0.0004957380318414197 0.0031657957213648566
1013 0.0006491267996683623 0.005848956219439097 -0.00034992442363518785
121 0.003005713218434106 0.0005973687640541537 -0.0024187596255185236
28 -0.001612030356614831 0.0008530825569577658 0.004333610867512199
332 0.0026280583460165743 0.003071887948851317 -0.002779510109692498
180 -0.0010585175837159204 0.001336970848030452 0.00035812824029631484
1012 -0.0009005122942763311 0.004848784877586407 -0.0009593739309682895
1014 -0.0024501513882210306 0.003848613535733715 -0.0015688234383013934
305 0.005029402027746722 -0.00302933393969814 -0.0020070868591464505
304 0.006059688888720452 -0.004207688900796087 -0.0031100726658719706
179 -0.002254504426941252 0.0013395103482624294 0.0008497280603992127
960 -0.0007064974019508443 -0.00022622488415767608 0.0003480434783522364
524 0.0015633735616851527 -0.002115402550661915 0.00041564702397681836
959 -0.0010395293929593421 -0.0003777961214996664 -1.8669351843057585e-05
525 0.0030172947309070833 -0.0016901243810437637 0.001223425659792521
958 -0.0014828044717433405 -0.000579541761522714 -0.0005067745882309172
692 0.001558208891480534 -0.0012096540626055298 0.0016325095846885435
693 3.456645612639011e-05 -0.001810790120175949 0.002434845523781005
306 0.004255348847132044 -0.002144037387756372 -0.0011784150550026686
609 -0.004885936219674096 0.00429350607011043 -0.0005254191580026014
608 -0.0040588961328070425 0.002086136736545504 1.4216669542467124e-06
315 0.0025913808529090766 0.004582947421204929 0.0011740146987781737
314 0.0005909542587956619 0.002234597066249105 0.0019186177033468134
313 -0.002071670594216129 -0.0008911242359392689 0.002909705540024162
178 -0.003846397027258459 0.001342890495502914 0.0015040614423857794
225 0.0027043933747642472 0.00011862051153761104 0.002183554002807745
607 -0.002958082188316752 -0.0008519348051052994 0.0007026618315467563
534 0.00702384767463376 0.0036569594061497492 -0.002476682652226366
533 0.0072447761711147305 0.003176304102043973 -0.0005214402955702485
532 0.007538838301262254 0.002536538183009479 0.002081043048639276
990 -0.003911727159596732 -0.0003313504759579885 0.003974066132829419
350 -0.0032634401112267243 0.0004210592897641632 -0.001222663643811196
988 -0.0004822775680228301 0.001542393952870942 0.0012991177972190495
421 -0.005061968836247379 -0.009216995422644307 0.0021616808149918718
189 0.0036913987840403277 0.0010258908458763874 0.003148844656798714
351 0.0009517133470461118 -0.0036553138641450596 0.003277239407614326
187 5.327956404770594e-05 0.0007137682203616168 -0.007841154302401425
188 0.0021306631750186494 0.0008919917440148386 -0.0015658119230287032
231 0.0031510832735935947 0.005494458549670703 -0.004260748485249596
665 0.0012911868504239263 0.003609510761126168 -0.0027143887122652445
664 0.0014854199131985341 0.0035673775155915773 -0.0034804476950016138
772 -0.0001282544570161617 0.001081818951154801 -0.00043044836282126494
773 -0.0003950216680775112 -3.0984658807974984e-07 -0.0024534830993244825
774 -0.0005954435272969795 -0.0008133118069702312 -0.0039733864695415105
666 0.0011452598026120931 0.003641165413777806 -0.0021388495934172034
250 -0.005169291509523529 -0.002290961922914764 0.0040302862524469645
171 0.0007109597119698092 0.0027979849243871097 -0.00010524324341202652
170 0.00030287632218397686 0.0010073795961752451 0.001629279817724594
703 -0.004272881386165896 -0.0018868651330878465 -0.0018732438474071637
370 0.00010248908583001181 0.004460078068217887 -0.0024909887599356448
704 -0.004726737030931215 -0.003092205222213393 -0.0038119464397107245
372 -0.0058217710552441754 0.0035776812745309406 -0.003129016197216113
371 -0.003280292010667675 0.003956225245719595 -0.0028553055020238646
706 -0.0018032922588598539 0.005197922163542631 0.001277118143971984
707 -0.0012401286895392127 -0.0015365289437390636 0.0030490490934919653
681 0.002609007055711905 0.0014790517228048831 0.006267390652569227
705 -0.005067718187420481 -0.003997775665796677 -0.005268491179512813
55 0.00643795101166487 0.00020487712220511236 -0.0002680379354501768
323 0.001836788184153153 -0.0019687956804906688 -0.0013840919484067143
322 0.002207392511804525 8.104652570327625e-05 0.002134016247380679
610 -0.005281409439078292 -0.000545017500129748 0.0005863101576902914
907 0.006622764818761093 -0.00011948544975213637 0.0030127736657200306
908 0.0016797483839316122 -0.0008656600211669612 0.0028660790980777795
56 0.0011272784284675377 -0.0016820316132056623 -0.0020821490528550334
57 -0.0028626229863112484 -0.0030996636955889587 -0.0034450883793728272
909 -0.0020339334440539173 -0.0014262600076130187 0.0027558676599205795
611 -0.0007362320833423963 0.0013081806107368772 -0.0013929086421539797
504 -0.0033278099435995754 0.007508124863919259 2.1381156400170163e-05
694 0.004873610483780896 -0.0025652643410228066 0.0019916978658160046
503 -0.0011693195578617763 0.003381437222668708 -0.0022169102356308585
691 0.003586220430327026 -0.00040952482435276864 0.000564577565498923
583 0.0032917521078905483 0.006084063465676321 -0.00043907492942538737
232 -0.00027154154416375456 0.0011916227214279532 -0.0026684181501268516
523 -0.00037183698334662804 -0.002681459924224548 -0.0006595293797882515
233 0.0017503644448176726 0.0012818817661000494 -0.0043034904028015014
980 -0.002217226634352576 -0.00037730017816844854 -0.0029169996363228867
729 -0.0042196140190427665 0.0025859325524480387 0.005160870482991372
728 -0.00613887272409675 0.001050743660770199 0.0024574580425544986
727 -0.008693460801696685 -0.0009926365407715988 -0.0011408610225040893
234 0.0032694197884874823 0.0013496932691426592 -0.005531918062765511
979 3.8853090726090854e-05 0.0006982803652819793 -0.004090633778255291
981 0.0022949328158047553 0.001773860908732401 -0.0052642679201877
584 0.0040643682047180755 0.0020176733355840963 -0.0020310571535862103
585 0.0046448336748670565 -0.001037400288128064 -0.003227111331088848
896 0.0009228632187113257 0.0033660157609223594 0.001226242281278799
750 0.005261318318144387 0.0015646790519756927 0.0012069359480716252
462 0.0006723029411361852 0.004089354099173673 0.0011717239633948565
897 -0.00047936998940672246 0.0045643598341023155 -0.0015452524770122277
989 0.002947172023551079 0.0034161383816998722 -0.0013758305383913276
405 2.4074817596810363e-05 0.001496777196801706 0.0025655556504524564
895 0.002789275613267746 0.0017709856203025364 0.004915180853247849
404 0.004332695815670769 -0.000316102162043394 0.001605835245957252
793 -0.007168048088109907 -0.005355848944886646 -0.0008409377869590008
800 -0.0029767721709668587 0.00045250080267972314 -0.0013257739442459223
546 -0.0033838913089777245 0.0026932542911112965 -0.0009380813824158138
545 -0.004815069957573765 0.0020431744541465646 -0.000553887676691088
185 -0.0007530052516817439 0.0019908345403615284 0.002010102874445067
544 -0.0067200095589894015 0.0011778996495435488 -4.251489638332337e-05
403 0.010067593254766617 -0.0027290962956833626 0.0003284200143905793
801 -0.004358055678145512 -0.00016237781184166443 -0.0003476760760980663
184 0.0012168529043654341 0.00665402931019393 0.0014371593865253893
186 -0.0022329571260626367 -0.0015126176341164386 0.0024405545728366663
69 -0.00071194049957702 -0.0010166519061545446 0.002011465902174334
564 0.002867475986275043 -0.0022728661669077286 -0.003562419027933066
229 -0.0004443308607546782 0.004609191288666975 -0.0030910607036968535
846 0.001153159446776921 -0.0005128009055745785 0.00032849484433261807
939 -0.002671613794021155 -0.0011506349446492494 -0.008277018728690869
916 -0.0007797122548005681 0.0036316930060285406 0.003609252063336885
718 0.0047332793059076984 0.006339406917524645 0.005704792741087526
624 0.002987477630368049 -1.339635483558403e-05 0.0009291567567789776
623 0.003544724557304895 -0.0011415823173073843 -0.0011696883900733095
269 0.0022180295096121605 -0.002823284469272253 -0.001324337166208398
268 0.0019254900503730876 -0.002981625784184076 -0.0013092536208145508
845 -2.72134369295903e-05 -0.0010773700251751155 0.003421469946961762
270 0.0024378140254170994 -0.002704322845017072 -0.0013356694142737761
622 0.004286436110876848 -0.002643230011522229 -0.00396331114387841
719 -0.003908890264932416 0.0011153496796192253 0.003109254530727674
331 0.0006299689307659689 0.004589877403864184 -0.0050074252952854725
177 0.0014005381561032972 -0.001394210252966441 0.0018545659587217674
193 0.001492072868560318 -0.006395429565555744 0.004344468236970553
470 0.00018626284039557884 -0.0048804482661899745 -0.000353266253191957
176 0.00187806222900946 -0.0036213591321029603 -0.00011502897016157687
659 0.0011988390310546557 0.003788626074587152 -0.0015370977521324512
658 -0.00802266993674186 0.00436349472928913 -0.001792399986291823
175 0.002513660390008159 -0.006585757813062559 -0.0027366159973701903
469 0.0009554142655443063 -0.005104339388402591 -0.0013420555417153108
783 -0.0029230102979397026 -0.0006486500076064335 0.0009152045398409359
782 0.0005256038259302314 0.0006650505467971335 -0.0004845019747598553
195 0.003728543096167088 -0.005659425771689277 -0.0010443845757120572
866 0.0033466186974001615 -0.0019739844879733937 -0.0010860475798174962
471 -0.00039159962642070276 -0.004712239156839327 0.00038960985513370816
194 0.0027691081486917357 -0.00597516785159417 0.0012674073057391015
865 0.0028191660760190458 -0.0029007014339574293 -0.0027614633896792798
660 0.008126946742574508 0.0033567280008922466 -0.0013452895151698679
339 -0.003970436950773845 0.000693055435676458 0.007143265757173237
994 -0.005265626796338526 0.00166786560338229 -0.0015694886809320201
338 -0.002065716380559354 0.0013057360715325195 0.00041532575799865844
90 -0.002383348999727164 0.004153811454129682 0.004185971741027729
88 -0.003917691429766257 0.001485857320591769 -0.005542619933906192
391 0.0002020189633047749 0.0023468315253099624 -0.0018550973035510693
89 -0.0030415745064217244 0.003009271990835888 1.2452805952263514e-05
337 0.0004695210249119667 0.0021212314727584217 -0.008539754275474869
847 0.0009023081387273964 0.00045639630161558377 0.01061028077330201
848 -0.002367482839659004 0.0002577425673027582 0.0033560053027455214
699 -0.0005402048111561857 0.003813399523808623 0.0012379126642543784
996 -0.006034493339581374 -0.003457003279052173 -0.0014412444115244367
698 0.000992447409462529 0.003947308438542551 0.001247700680295046
849 -0.00482407255523891 0.00010849427470537655 -0.0020941224371465736
262 0.00037147203894138513 -0.0010952362063537527 0.0022579319494232778
580 0.0008551182136480349 -0.0018907332541219582 0.002554850657674475
237 -0.0037092119774083734 0.003267837056424633 0.0009191823028086919
435 -0.0018238942043374159 -0.005611535205990699 -0.0027704953137862166
917 -0.0006240161524582985 0.004051811206739182 0.0033948096250430685
343 0.002963175339860624 -0.00041049728806367384 0.0003400240984899267
526 0.004411498211034459 0.0011197026813130916 0.0014259742196461602
918 -0.0005070418729712843 0.004367445465325035 0.0032336992996495977
434 -0.0029149074485865126 -0.0029590722728145523 -0.0025321639430830175
433 -0.004367077194605206 0.0005714315448961281 -0.002214938090980215
132 -0.002534914013199797 0.0006779468766257197 0.004749530667932837
834 -0.0011701000298922448 0.004537640894266683 -0.0020828255444959726
131 -0.0024212399184807766 0.0019598998087186543 0.004383007699830484
130 -0.002269936456192712 0.0036662157252468457 0.0038951551753035846
129 0.0006620382733610637 0.002367853581889208 -0.0013515620474581465
128 0.0011425334631310327 0.0013203866646735306 -0.001062372517322619
127 0.0017820862654177683 -7.382167803359559e-05 -0.0006774530044369589
833 -0.0016926022983283372 0.004512062693696811 -0.0010064513768264294
380 -0.002110348778612319 -0.0008103790948385864 -0.0009239324870224425
879 0.00011204801161427422 0.0026675025107217084 0.002219564316809197
638 0.0004874410790239057 -0.002603159647399748 -0.0013027371041698878
878 0.0019502783454272243 0.0013997958003111586 0.0004948488584809202
169 -0.00024029430899163247 -0.0013759671673911024 0.0039379794842331435
1023 0.0014416358816322493 -0.006894941708138664 0.003937628437420665
675 -0.0004733299256409209 -0.0008637327402153024 -0.002737099907502297
674 -0.0006148806386695924 -0.00057206969486308 -0.001966197234210405
673 -0.0008032886750258212 -0.0001838578626742988 -0.0009401037883422001
74 0.0008033144172702681 -0.00020568426921661206 -0.001839019542315851
75 0.004033045604559116 -0.001636467691327739 -0.00415287525300104
877 0.004397015349810938 -0.00028755798882648415 -0.0018007966089568933
73 -0.0034955499115325007 0.0016987292744749395 0.0012407884044906964
379 -0.003387352026940277 0.002625337474989258 -0.0018856639960020019
355 -0.0007299908891539437 0.00024001362443467548 0.0022522239821041183
639 0.0020351614491594967 -0.0006245730941845415 0.0015745209669753779
548 0.0042428345018287236 0.005915601753230069 -0.0006892041430561433
347 -0.0019708554171321176 -0.0027547712942327155 0.0036245178847257725
348 -0.0038802953004560548 -0.004994614247953031 0.0021715491642180264
637 -0.0015726188777685044 -0.005236714783053525 -0.005132449662133341
867 0.0037428931668403885 -0.0012777432499840933 0.00017269014226696956
502 0.0017036927101038324 -0.002111301729384748 -0.0051961399190601784
781 0.005115807586310265 0.0024136234541277182 -0.0023475512681783673
612 0.0026785537611942294 0.00270048594468017 -0.0028798931560629504
695 0.0029130056313036966 0.0002207594530090774 0.0007442736066118344
768 0.001731267864002935 0.005116398035043798 -0.00044804595464543366
766 -0.0029352004790300953 -0.0008730508694085033 -0.006471618109342501
767 -0.000270624561984907 0.002546953325199037 -0.0030321293743653136
696 0.0014400057518776368 0.0023138955112525254 -0.00019291461929675285
1001 0.0023088273447204586 0.0035639233864884273 0.00014552302199068515
549 0.0036134722524791022 0.006099324043776205 -0.002020170391028813
1018 -0.0022942061353313243 0.0033924371310068958 -0.0009744720786396551
1020 -0.002166954185794415 0.0039299822492352594 -0.0012366280176754826
837 0.006310389768830022 -0.004962831861257318 -0.006586263765609335
1000 -8.024348692980909e-05 0.002511726768955283 0.0010337687051190309
1002 -0.002469314318580065 0.0014595301514221356 0.0019220143882473703
1019 -0.0024214580848682336 0.0028548920127785316 -0.000712316139603828
620 0.00015959352686922997 -0.0047080954763092184 0.0020492778212210083
392 -0.0008355156738588906 0.0028580513407652614 0.0007768580843746052
619 0.0031563052334416253 -0.0030721905397396356 -0.00031538900020275634
393 -0.0016150140993123722 0.0032421301241949943 0.0027542427491992877
836 0.003690777794221525 -0.0035821622168977574 -0.0019400051686022505
983 -0.0035948551720148235 0.0012156546362493237 0.0016001403278466347
835 0.00020399953934069652 -0.0017444515407406924 0.004244297544786628
982 -0.0004245386691718228 -0.0002980425927846385 -0.00010482371017454285
301 0.00014249929361537478 0.0029385675695747975 -0.0010391862716220227
302 9.13444454544484e-05 0.0006626343460992387 -0.0022924778835259427
303 5.2911874466007413e-05 -0.0010472713289405246 -0.0032340742438979257
506 -0.00020562811445766415 -0.0014560196376795817 0.0011754266443005858
68 -0.001716665380147862 0.0009951794136037553 0.0013337218650373722
1021 -0.0007804719034603537 -0.0016350656089659666 0.00019040538469248464
67 -0.003053982852990641 0.003672984281734934 0.0004316252209657064
150 -0.0013382668968754553 0.0019129098540238395 0.0016115169266448228
149 -4.519640387500327e-07 -0.001425634235674129 -0.000490456898211374
345 0.0009673390623474796 -0.0012201155613009366 2.689770585665276e-05
521 2.005685306590661e-05 0.0022863471387092535 0.0019377138941715623
344 0.0018235432051293516 -0.0008727932245803154 0.0001612274189737088
1022 -0.003002579688552957 0.0036248104902067307 -0.003556817668035695
505 0.00015316552209021712 -0.000588815321695097 0.0008962113070765808
522 0.0025051381177217187 0.0015325232307401753 0.007162319967388054
148 0.00178021786877761 -0.0058693316411493985 -0.0032882440116759706
520 -0.003287657189777587 0.003289708260811555 -0.0050163858057016815
629 -0.004669064718746389 3.6218346637726414e-05 -0.00017896473948869057
490 -0.003981529437163047 0.002726340557661574 -0.0020691311265897557
491 -0.0023589601996451357 -0.0007796248807972454 -0.00176901966350588
492 -0.0011399260387306978 -0.0034136521615094977 -0.001543546311046111
869 -0.00034863578280550675 0.001123396245495137 0.0014111213983643547
870 0.0020104697628569846 0.002622130866486532 0.0018643630959347493
247 0.003616174776730828 -0.0013533602561346014 0.0012531669954310178
628 -0.004886489268382391 0.006249945147002038 -0.001335677665855518
248 0.0008942010197663087 0.002808462978595903 0.00014909597879626563
868 -0.003488672550584449 -0.0008714622820128597 0.0008078437715204479
249 -0.0011508143288102794 0.005935235369883688 -0.0006803911421429598
115 0.0013826154480091077 0.001980015083372689 -0.002278228326982457
966 0.0005116897872173447 0.006741521501010599 0.0005156433740414815
964 6.871673249880212e-05 0.0007362690606158422 -0.002100509795057348
965 -0.0003742563222197345 -0.00526898337977894 -0.004716662964156179
630 -0.00450571393697442 -0.004632146528700923 0.0006900721798661226
957 -0.0018533820445368156 0.002527938741269266 9.9305074375086e-05
956 -0.0007371313777555835 0.0013026465392104395 -0.0020729498755147047
48 -0.0019800017060649803 0.0021684011070056816 0.0021926184564443683
47 -0.0001516364863690309 0.0004156241244918552 0.0002033856122577144
46 0.0022819697697517706 -0.0019173720320088254 -0.002444340040333003
823 0.0020778579435377737 -0.002538967997045222 0.001801968208563537
824 0.0028278474489339418 -0.0007018677414530458 -0.0005446970590242867
538 0.00029481864985662546 0.0003143606270110186 0.0010947287803369627
825 0.0033913135903257357 0.0006783432947288623 -0.002307743626945789
539 0.0007970377508344078 0.0008782558642628222 0.000185230213300353
747 5.7215732186835684e-05 0.0024554593129675825 -0.0026184538988247566
746 -0.0017188760218968938 0.0031987233692232922 0.001144361249709762
745 -0.004082904804341956 0.004188029027506613 0.006152775535572472
300 -0.0015004234686994454 -0.0035904146919039726 0.004767053868066707
299 -0.0033313790378356406 -0.001731006281166109 0.0012791342632584015
648 0.0011318527736932779 -0.0006843778878268768 0.005607516642363901
601 0.002553338922400115 -0.0006729116789664078 -0.000543150358353896
582 -0.0010068464770816488 -0.0051147676773551035 0.0014995237077084578
603 -0.003284066563230937 0.0052754288432607455 0.00012595153929502358
602 -0.0007798477471852774 0.0027236194312411574 -0.00016108994961109644
646 -0.004629531559052254 -0.002313211682133667 0.004381602652172438
676 0.0005867568345615307 -0.005544885643570524 0.00024746360049692547
677 -0.001737646158893983 -0.0043008488617577115 -0.003914271174987491
678 -0.003483967109171914 -0.0033662056432139193 -0.007040977106958576
647 -0.0013397533341994083 -0.0013831397343277926 0.005081605449686291
581 -0.00020807259974599945 -0.003731672450183894 0.0019522538823879838
697 0.0030324512294735975 0.0041255450234088074 0.0012607288088193646
995 -0.004496760253095678 0.00679273448581676 -0.001697732950339601
811 0.0013900689431172203 -0.0044213257215677615 0.002032758181722249
912 -0.0006969319472903932 0.0019371332844915533 0.0024619331000662868
110 -0.00036761240924987446 -0.0018814999364673655 -0.002733464632184063
515 0.0015537444200373935 -0.0033387924327441757 0.0008940437650791955
516 0.002374515734840106 -0.003581760814789501 0.001522782110874608
528 -0.0026868119536701757 0.004427353983100218 0.0008776665639497634
527 0.0003583288919224354 0.0030083875180769667 0.0011128879053070974
910 0.00083530272489656 0.0027566429420463816 0.0030908148949522173
911 -3.961065855464637e-05 0.0022886989774062515 0.002731720358754839
419 0.002127002209703434 0.0037128589652447256 -0.005116405690010316
420 0.0026191160378295913 0.0015516297677845262 -0.007998598857629942
418 0.0014719846683773536 0.006589516669729343 -0.001280124377880484
514 0.0004612743899629153 -0.003015394586287989 5.717509392540014e-05
109 0.0010914802918719135 0.0008157233161453128 -0.003235146599602437
111 -0.0014638268606770896 -0.003907920263267932 -0.0023565516215976598
446 -0.0019761121240521907 -0.00024006533743291692 0.00024324351699575998
447 -0.0009512657359494285 0.0044105500955266275 -0.00144002290620407
856 -0.0028349493895357637 -6.612752825713809e-05 0.008147514027101468
857 0.000844806512642275 -0.0004917672321067387 0.005645273498525424
702 0.004422967443437846 0.0012108267764236466 0.005526814645297554
116 0.0008533404583222733 0.000853149307096167 -0.003341579016639702
117 0.00045569684594067066 6.5365128416624944e-06 -0.004140473008804269
888 0.004926079834873341 0.0026268087521534493 -0.004312827555583447
431 0.0004057970017165698 0.002916300921824085 -0.0031569015561488177
432 0.0005197321546031407 0.0022213761613270313 -0.00346025260684109
1036 -0.003371936004209287 -7.318905356489008e-05 -0.0014313574545722998
1038 -0.006556114056078704 0.0034994662404691877 -0.0042736769341715514
401 -0.00012292738078153103 0.0012376647084692055 -0.001484139032361794
1037 -0.0001877579523398877 -0.0036458443475990126 0.0014109620250269644
700 0.0026947899912723823 -0.000527763816294887 -0.0033042725043760986
887 0.005034537594531117 0.0023745748519886606 -0.0024833685631576977
701 0.0036815876465689417 0.00046497979245058814 0.0017383208254338554
634 -0.006421479586694144 -0.003582773967182662 -0.0011595970811320994
635 0.0003501352692660105 0.0019710866061658505 -0.0030756346197109746
886 0.005178897966072148 0.0020388443366439932 -4.830646433692798e-05
508 -0.0034049383447730406 0.004553803783587055 -0.0020179529700743793
430 0.0002541460635615834 0.0038412655987173122 -0.002753132655486674
400 -0.0008792093687734182 0.006969332894813432 0.0007417383868844293
636 0.005437640716243874 0.006143694842116629 -0.004515151134084842
998 -0.007872537010993037 -0.0018352426763042402 0.002862250454328444
999 -0.006112828432005408 0.0011152919668391366 0.0007276500808011664
997 -0.006992682721499218 -0.0003599753547325519 0.0017949502675648076
860 -0.0008677563427671992 -0.0033185319112530704 -0.0003931310703835873
547 0.005080533606408174 0.0056710621443786845 0.0010823498948677327
297 -0.00011604404754528871 -0.0048039049069286835 0.0033109761513717894
296 -0.0010045859167884539 -0.004425132048902138 0.0015249345189467603
1026 0.0017498651768117798 -0.004903168029351758 -0.0012765881051907209
295 -0.0021872604877776263 -0.003920974571494287 -0.0008523378353613991
1024 0.0009483149415878456 -0.0049020232369319785 -0.002812401708123972
861 0.0010656257522331884 -0.001617015260962895 -0.0020477991928466075
822 -0.0014783274807766095 -0.004218480766561731 0.0032590545037239956
402 0.0004452662946123638 -0.0030685301562062848 -0.003156437846691585
859 -0.0034411430552136937 -0.005583299103514857 0.001809279395124653
780 -0.0006051268526057936 -0.004327688235115154 0.002891735784432019
139 0.0012309353062229477 0.004090256572328624 -0.0041233213399763016
141 0.00173875153229629 -0.0050830474282258535 -6.312185446490396e-05
140 0.0015209008190716475 -0.0011477442288778646 -0.001804927862895265
805 -0.004397967154498613 -0.0057448182748245785 0.0033758609404933217
779 -0.0019303980082027638 -0.0009973783968120005 0.0029957341758810136
778 -0.003694371715738924 0.003435358985199135 0.0031341590011459055
102 -0.0005443278475384127 0.0025821970812342247 -0.0008020234967974107
894 0.0007575018311951263 0.0013722830881637057 0.007225925918996956
101 5.76939746362103e-05 0.006761452165734721 -0.002270475776002052
445 -0.003340211897326393 -0.006430167123740331 0.0024837191364665725
806 -0.002739106964249262 -0.0013379635932250513 0.002380318797469566
621 -0.00209183208644523 -0.005937148730602078 0.0038258489331607966
949 -0.002176820790607657 -0.0008145879678509475 0.004326992942292886
1031 -0.0012139615860620795 0.003445087694406609 0.0053267122510799545
509 -0.0007690520665189233 0.002294683569033008 0.0012503616392262645
510 0.001211285871104463 0.0005974094857609078 0.0037058421606294073
507 -0.0004751893076303228 -0.002107549114039353 0.0013852007645396608
144 -0.006200987916362238 -0.006062731729682165 0.001673407642788701
807 -0.001492807457678806 0.0019729006058727904 0.0016323692783276873
556 -0.0030634000534393176 -0.0010469005732377861 0.0045107846619844546
1032 -0.003185049337177225 0.0023451396506415645 0.0014599812919548728
1030 -0.0021995054616196536 0.0028951136725240897 0.003393346771517413
142 -0.004535927091235011 0.0005913182586186503 0.0028029927958230358
143 -0.005486684848259831 -0.0032081763583569666 0.0021579942286473293
557 -0.0058482796457248335 0.0017589735526644047 0.00038307140268748006
164 0.0055185578667316685 -0.0031181258160076857 0.001868504861584552
165 0.0050354945021324655 -0.0034769308798098665 0.002059031871661078
558 -0.007940556066682189 0.00386702313946234 -0.0027180742083557593
12 -0.005278986109676113 -0.0022034294218958943 0.0009713846417753902
769 0.0019363962317333469 0.0011059954871164336 0.0007709589523417224
976 0.003440913991833944 0.0022676230318474807 -0.0006288185073123834
978 0.0038570286992287645 0.002421673109194759 -0.001956181434406832
977 0.003024799284439127 0.0021135729545002048 0.000698544419782062
244 0.0008546955107764616 0.003096638058521877 -0.0005063722250105091
245 -0.0002290123210769401 0.002289429877599343 -0.002011173388658156
160 -8.578595415081644e-06 0.0014811401322381065 -0.004516665884671462
246 -0.0010432006077356313 0.001682975419594555 -0.003141728548619402
424 -0.006141424733866288 0.004575582234483956 -0.011421425105765843
770 0.0034298732303577268 0.00042869805780172226 -0.004503916038835611
654 0.0008887052149182397 -0.0015426992431640605 -0.00235213119364658
771 0.004551920559843707 -8.015462123537177e-05 -0.008466922769220148
425 -0.0028870909192063336 0.0013082992666078172 -0.003724797906738733
653 0.00037406250947213943 -0.0006096925089663763 -0.0009046296587232303
120 0.003413247250316871 -0.0022978308337993454 -0.004138991304612873
11 -0.004071975067569182 -0.0017922053364355693 -0.0006171692030620499
10 -0.002465408944107933 -0.0012448543497381552 -0.002731579679336597
661 0.007992678061403715 0.0005030941968489815 -0.005496972969262136
759 -0.008333863936693319 0.0036291438587469057 -0.004188127735855918
280 0.005040888330314596 0.00046120341544466227 -3.1487056425403106e-05
396 -0.0025705189345395394 -0.004749461083821489 -4.541716984886746e-05
690 -0.0012635962617856215 0.001553564089575342 0.004758834745081665
758 -0.0003497324865875678 0.0029588755004108153 -0.004007399168745404
688 -0.004770567071716223 0.00451666508921282 0.0014526081360422432
689 -0.002768069835048397 0.002824720135767614 0.0033404794663799147
395 -0.0029593094176988965 -0.002126779603021529 0.0006434373724356277
123 0.00013720924969964693 -0.005000349395519224 0.0025006012877778505
122 0.0013677836256083468 -0.0025989552870185227 0.0003902191681323554
757 0.01027737419721782 0.002066729198044724 -0.0037668442911739076
394 -0.0034768006398816177 0.0013640842521486958 0.0015603224157529432
256 0.0024834163513250524 -0.005367868335617009 -0.0020329203231503907
257 0.005644013466853556 -0.003652544336957847 -0.0006283442758611424
168 0.0013582140716851413 -0.0025847652887474367 0.0008692513024536109
167 0.00483596573715147 -0.00019339374979123838 -0.00030449058740021043
711 0.004072283188749913 0.00011332405000477472 0.003144110869048406
709 -0.00019206511114348585 0.0006309942682895634 0.0031142405924668736
87 -0.0006076494770968876 -0.0021603705199261074 0.0022076036664973805
86 -0.0028128116163518737 -0.00012329954415829077 0.0021421814304380463
166 0.009464952396458412 0.0029895899753535817 -0.001866774520308498
85 -0.005747945319422474 0.0025881000260080363 0.0020551025682674544
710 0.002242898322981781 0.00033540207839020427 0.003131296664374757
552 -0.002210713092888656 0.0041469255413656625 0.007518502514153317
258 0.00801856597507854 -0.0023638236444587287 0.0004269118843425306
1043 -0.003304802366567967 -0.011690107283488075 0.004361988838606212
487 0.0014540992158468373 0.002467840257411647 -0.0011141029974690308
426 -0.0004421141506598474 -0.0011464061839328973 0.0020576681122705933
489 0.006644798037348925 -0.002457439529025619 -0.0028569630075019462
488 0.0044180132629781784 -0.0003445182413326527 -0.0021092844640803374
813 0.004418151291491766 -0.0013802177003037562 -0.0008247562750247641
812 0.003119118559912481 -0.0026848383827666605 0.0004011036532126489
1 -0.0030825327762281016 0.001203897222362798 0.0005257254861481633
973 0.00196959068433935 -0.003713495215497604 -0.0023785415849432922
974 0.0016227748585140082 -0.004299685835094254 -0.003547672169972434
550 -0.001554416655999973 -0.00019270548189147946 -0.008271712715133824
1044 -8.47848247270027e-05 0.0006387673606815482 -0.0013139915717558133
840 0.00647722916082176 0.0018070656122991934 -0.0011570026161161024
551 -0.0019291650849241795 0.0022852447501500515 0.0007445762923197245
2 -0.0012936711435744387 8.225630139831934e-05 0.00012406012892340266
3 5.029827784133246e-05 -0.0007604310658457667 -0.00017771053231623778
1042 -0.0016947935956474803 -0.005525669961403252 0.0015239986334252063
839 0.005241169070404121 -0.00043111827300803683 -0.0015988128269774657
975 0.0023164065101646944 -0.003127304595900952 -0.0012094109999141517
161 -9.419079051960169e-05 0.0007307551846420619 -0.00207051379311271
714 0.002623371427257625 -0.0048125449664268 -0.0014269754190289403
567 0.006165601315141598 -0.0002737784470985389 -8.007845599154934e-05
32 0.0005447275127863516 0.003550619336527221 -0.002558836121859758
162 -0.00015851112151695987 0.00016699194803906014 -0.0002327229035455178
158 -0.0019319492163805177 -0.0017434477466392404 -0.0029682488713683786
285 -0.0014511020602768743 0.004262005314685485 -0.0018665832542683898
284 -0.0018070381189116218 0.003812249136372323 -0.002526838330691268
777 -0.001251231996276781 -0.006611857371005767 -0.00030975590391287195
776 -0.0016453839503554177 -0.002595085529495721 0.00025377342893857156
566 0.005011211147568349 -0.003637555437338728 0.0016187038258790643
775 -0.002170011443251777 0.0027513523580802914 0.0010038470439698798
565 0.003474684908966114 -0.008114838553129501 0.0038798314957846376
159 -0.0026430115475364283 -0.005078126137999181 -0.0010344670137009656
712 -0.0018816580272003197 -0.004014509587488301 -0.0023764946682211683
713 0.0006907355063055136 -0.004470191635528822 -0.0018343146000876734
31 0.0013599542820056506 0.0040126365003791764 -0.002045837257890167
104 0.00029262622332003606 -0.0016185304489847565 0.0013507374966344507
105 -0.001609578795081219 -0.0054412014882815754 -0.001361538715816775
662 0.00739634249972158 0.001382344420580269 -2.532152601700656e-05
663 0.006948316366691563 0.002042923971786177 0.004085523097252215
821 -0.0004241123196060256 -0.0037985069475943286 0.001863621782171361
855 0.0005340616357341225 -0.005666723011534057 0.0011247623451905915
854 0.0010371835530079922 -0.002904209331133215 0.002407624695098277
93 -0.0025711576117822916 0.005647363273195126 0.0007580930570425456
172 0.0034746990433114967 -0.0008159095698797046 -0.0032017627127476486
173 -0.0027022749669524714 -0.0007763617114876166 -0.0017277334788309005
92 -0.0026933136856610307 0.001329178745555259 0.003010065104436439
91 -0.0028559069041340303 -0.004418448024164198 0.006007504130353989
853 0.0017068531749628302 0.0007727751700053556 0.004115151072676369
589 -0.003139186728415297 -0.00047289626130879686 -0.0004922841172327122
324 0.0015583536340929985 -0.0035088394678714453 -0.004027242066930104
124 -0.003052000987816974 -0.008826343583266448 -0.00965645027461998
461 -0.00039181527943420093 0.0035631882314075968 -0.0005023407613800859
310 -0.0008232779502275299 0.0027665485760207955 -0.005009765056034987
151 0.004734911082244846 0.002170902400545969 0.0006669695969065171
312 0.00045127228581919835 0.0034446477899546793 0.003393927432829568
311 -9.550362189532577e-05 0.0031537464957309084 -0.00021121613766220354
591 -0.00278463779064101 0.0032982661481122943 0.0049750317744606575
590 -0.002936737575959831 0.001680455652116669 0.002629579610319299
126 -0.0010011782105562833 0.0016356310719633986 7.39111170732663e-05
152 0.0019321618475922355 0.0016635931178707354 0.0015518350505820764
891 -0.00248793407697798 -0.0003020554631727977 -0.0074081993314168235
100 0.0008590021908409822 0.012324159884084574 -0.004225027642877719
606 -0.0042005793694276485 0.0003204458962171291 -6.598326051977083e-05
890 -0.001489459086653227 0.0016837517915506857 -0.005353973464900386
605 0.0017409452875004749 -0.0038992898922912958 -0.0013461707308985275
153 -0.00017354001246819685 0.0012824523126400559 0.0022166333167526115
889 -0.00016046039598760237 0.004326917886861121 -0.0026197402458551736
125 -0.001880971296685546 -0.0028525056266279743 -0.004100367017961619
604 0.009649284070274277 -0.009515878582267944 -0.003050136767530589
460 -0.0018081869818355667 0.00286284645408715 -0.0027305686577961744
671 0.0023874618663165294 -0.000472095634955342 0.0006867023999731177
563 0.001227366819849474 -9.322335775127687e-05 0.0016166917485864836
670 0.0008630628009787566 0.001048294802588565 0.0036383479994740397
672 0.003532740904365756 -0.0016143629961490472 -0.0015308651056259426
1050 0.001459318803370446 0.0004935508708650712 0.0041567179012038545
59 -0.0014207732967072308 0.0012653903754401455 -0.0034606934918147386
58 -0.002279793057907039 -0.0013934548034508542 -0.0032796886445027565
794 -0.0003660605517879711 -0.0014316735876097673 -8.130241038107653e-05
60 -0.000775392865727898 0.0032629773052952615 -0.003596682198528993
838 0.003595937835103193 -0.0034102048619217284 -0.0021868748189623386
652 -0.0003109416101363266 0.0006321660655059064 0.0010220361699560718
562 -0.0009556652599218155 0.0028079433890948326 0.008510235910937488
795 0.004744263850500668 0.0015165542619807557 0.0004894106615024486
157 -0.0009855049726639172 0.0026951043040904874 -0.005542167679326721
577 -0.0021572744866640648 0.0014811650694522254 0.00012050132641044071
578 -0.003808864540484968 0.0016546756104882554 0.00038972955876498855
632 0.0013073175695773652 -0.0008496188851741597 -0.0015483351079742182
633 0.0023904305462164547 -0.001508203617969101 -0.0010631731593328574
367 -0.0002613357226515893 -0.004734788796937858 -0.0010691142240297942
352 -0.0037771369926395755 0.0025574910475608293 0.008779428972897744
353 0.0005387824742654934 0.0019127314913972527 0.0024750984231041964
354 0.0037813271646610553 0.0014283244742016338 -0.0022613369315134363
763 0.0031413427941105695 0.00032288048332646603 -0.004095823003716858
765 0.0037803816228422623 0.0003483656086414869 -0.0036468349830613036
764 0.0035062370455925147 0.0003374326127239932 -0.003839448679723698
631 -0.00013433669492064044 2.697617835583689e-05 -0.0021940994994242556
368 -0.0032143307322471185 -0.0015310445190798486 -0.0004091981563252968
684 0.003637106095783416 0.0024397854102657327 -0.005811872128686111
208 0.0003179686991256923 -0.0013235907066984206 0.0023824083339413042
792 -0.005611563655585387 -0.002881546878706246 -0.004445815709876897
791 -0.0020777292701975253 -0.002315846423781249 -0.00251460145872237
203 -0.0049269433840792975 -0.003271903232245678 0.0009725651781382189
940 0.0011661741449987297 -0.0074619904090222474 -0.003899246909509003
941 0.0009329846378760123 -0.002279501294162709 -0.0031622080024603723
790 0.002625905088918557 -0.001562882983345211 5.5899791733955186e-05
954 -0.002826773148221313 -0.004174997026682653 0.002309516690257172
953 -0.002106099014554374 -0.002058981510718299 0.002918649295053504
952 -0.0011468611875473864 0.0007574954941089297 0.0037294221657417992
15 -0.003718321682654242 -0.0002630990999863907 0.0018305057302087442
14 -0.0035936924205898875 -4.5117902264324745e-05 0.0017878554408929167
680 -0.0007998830679365489 -0.0019865135397260274 0.006163955606027197
748 0.0028903531119040485 0.0002518895552202925 0.002185358051301366
559 0.008986084051581963 -0.00208125748196595 0.004092015200184798
94 0.005173069914428176 0.0033910592468554372 -0.0009673221314295164
708 -0.0008170246312898765 -0.006596113314599391 0.004380298514657319
13 -0.003427807318101463 0.00024502128917213404 0.0017310866893403022
817 0.000425911513108244 0.0025552908006796016 0.001562654724394926
942 0.0007577896640182296 0.0016140960473259285 -0.00260847162878812
679 -0.005337213051012249 -0.006599279749144882 0.00602628060890125
560 0.0032437001104184057 0.0012713914943257424 0.0008011087232081598
95 0.003940936745498494 0.0014242570010984646 -6.676042358598998e-05
156 0.0032180050956272244 -0.0003520350201923826 -0.00768620274325152
155 0.0018995396131043349 -0.0003072684272261352 -0.003029747514866366
154 0.0001446244505414558 -0.0002476828151535145 0.0031681272057154384
962 0.0018315167632447565 0.002958062271745141 0.0028307918813196757
600 -0.004839626373391186 -0.0022214053924614397 -0.0015111994618620902
96 0.0030152366958545703 -5.3398971850113046e-05 0.0006098304179561897
961 -0.0034098911845897193 -0.0011781645290416174 0.002971719964007014
594 0.001550663307677393 0.00699506166920313 -0.0005514048212358433
200 0.0023512175663919126 -0.0009699553134547209 -0.0009308764451499041
201 5.457741181321817e-05 -0.00614507118866197 -0.004878476204481595
199 0.005408111116997957 0.0059182715213068815 0.004323491428117867
810 -0.0007008295453943856 0.0002741614298859242 -0.0028392732930400846
749 0.0042441856731239656 0.0010014986857369112 0.0016266743141957678
593 0.002548387309909988 0.0023380576635146015 0.002277073632701726
592 0.0038763864140052263 -0.003860547495310249 0.00604185912886754
202 -0.004876084584302315 -0.0007649909039213888 -0.00021539408235410936
1008 -0.0014508452882921546 0.0022834553782247295 0.0035162290728221234
209 -0.0017933054743681813 -0.005017606538763794 0.004134187354841786
963 -0.008651299132424163 -0.005314391329828394 0.003112648046694341
210 -0.003379503018999617 -0.007792915835971352 0.005450296658206628
599 -0.0033695315621271784 -0.0007392234553645428 -0.0012764553697502553
598 -0.001412793438232131 0.0012336029777635688 -0.0009640042877690695
1007 -0.002222393336115051 -0.00911515523294433 0.006211337069464964
1006 -0.0018366193122036042 -0.0034158499273598025 0.0048637830711435424
17 -0.0006307235498461691 0.0028094837419134584 -0.0008202031212224233
44 0.0026588165323413516 0.005027877358567569 -0.0011707820430895198
43 0.009855927707435177 0.003978223247092853 0.0008496577192359139
45 -0.002748363746609027 0.005816481129331345 -0.0026887358125768754
18 0.0009368637120949241 0.0009155392608708474 -8.111401836533038e-05
799 -0.0011382444258889713 0.001270921776199977 -0.002627650104096993
493 -0.003805227691841721 0.004915786370219701 0.00033344692095795144
16 -0.00271722690627598 0.0053303778653409645 -0.0018039517974539918
369 -0.005432912047897798 0.0008759243961680284 8.659592830723666e-05
366 0.0006526270598156906 0.0005479966171356576 -0.002348216204498088
7 0.004294386873618535 0.0022606781948976183 -0.00391204159994953
8 0.001365110303417209 -0.00019505194254694445 -0.0017827602392131105
9 -0.0008356513795197656 -0.0020400388055491292 -0.00018303391819230364
365 0.0005406642669181198 0.0005160639870175525 -0.0029027980469148135
904 -0.0010701329570974721 2.729948324400232e-05 0.0034836236092516517
107 0.0001863114891739574 -0.0034912824979185463 -0.0027164421603376797
364 0.00039163859616422354 0.0004735607455466094 -0.003640962296976834
192 0.004208391358639731 -0.004128854689439143 -0.0037398410471110844
682 -0.00388566838957113 0.004618279544352924 0.005080513330888027
106 0.0009217311766187882 0.0033853573855901773 0.0009045480893398049
905 -0.0005818586231828439 0.0003615542223865992 0.0013262127803617845
683 0.0004098721026224094 0.003374348893075839 -0.001139091269684517
191 0.004876407665296798 -0.0024686417734185954 -0.004436266081945439
108 -0.0003662083669128295 -0.008657693111697465 -0.005436887432335606
906 -0.00021501875023529254 0.0006126793738073682 -0.00029464717355093544
333 0.004129220328773038 0.0019314244427150224 -0.0011056803241528417
616 0.0010312562461668954 0.0024900601345865876 -0.005368286504779016
618 0.001058012223129274 -0.0022216886952519605 -0.0064936568800371495
617 0.0010465340379807906 -0.00020037115868421968 -0.006010878413528559
913 -0.0017669889868209034 -0.003131278595253516 -0.002674452717946611
293 0.000656710598215599 0.0022227115541016804 -0.0008012675472019863
914 0.0027834811584495807 -0.006539425458180971 -0.0001633931215331623
25 -0.004328943031307998 -0.005934970856851745 -0.0014638527441465047
294 0.0008241973508666375 0.0016707550173434092 -0.0009397817711845782
26 0.00026478603852361234 -0.0011505635600747904 0.0009683582636009641
898 -0.003482063535537074 2.712384497671359e-05 -0.0004454331637696398
899 -0.0023690870859183087 -0.0005625191828750163 9.472893705433516e-05
27 0.003716048722806198 0.002443955428477771 0.002795675235006048
292 0.00043378095337324936 0.0029573814474532193 -0.0006169011643729517
78 0.008429151683101179 -0.00022422019290357182 -0.0024381618673499734
915 0.006202243468889836 -0.009099961770133625 0.0017231626921359149
924 -0.000728200677156698 -0.013301638979524799 -0.001859529401521952
809 -0.00021998912397250243 3.872161356904119e-05 -0.002150750795315992
922 -0.0009993958726127032 0.0036901026411330353 0.0010777435839843606
412 -0.0024223874443668465 0.005917554132989871 -0.002033852290707932
436 -0.012526486981094043 -0.0034569724987834885 7.11895702743381e-05
413 0.001188939335398106 0.002388259333977471 0.00038908235994660097
414 0.003902124455000742 -0.0002632952650208106 0.002209430016314973
808 0.0004200231914896428 -0.00027465549717253145 -0.0012343077127791743
441 0.0014189022477343442 0.005052406945331685 -0.006963392771055402
440 -0.00035899263731650803 0.002874182444391901 -0.003001033973551182
438 0.0011127572037249638 -0.0029774268190216583 0.003909417481010502
437 -0.004738412808079106 -0.003183149604147509 0.002262836208217867
923 -0.0008445421088002274 -0.00601226372735532 -0.0005994534488965172
264 0.007800547653924816 -0.0005126088423366546 0.000531316390875166
263 0.004613510024508493 -0.0007625531731367216 0.001272026142910824
452 -0.0053671907756889965 0.003950403377667333 0.0015627745440230552
289 0.0036468316462131157 -0.0024565977461102773 0.0029581008193420755
290 0.0015255874671284727 -0.001844996020757876 -0.0015724949824700656
241 -0.00024201717752600146 -0.0030547131486068626 0.00016689725024735327
242 -0.003456554895009511 -0.0016837596225619017 0.0011315837646766246
243 -0.005871632907430565 -0.0006537640189034483 0.001856351490127707
291 -6.810052975524984e-05 -0.00138550043878855 -0.004976325724480882
235 -0.004712602529747482 0.005206564234021402 -0.0012759069938779691
190 0.005765556422645021 -0.0002588510295364393 -0.005363227666772507
236 -0.004139661687848252 0.004099541670617985 -2.250042476508143e-05
494 -0.0015605597568258088 -9.706943048382163e-05 -0.0016171400322289053
238 -0.001987133457677704 0.0025784116286396716 0.0039342562943563975
239 -0.0008366953885361766 0.000865408835031255 0.0006671844178359524
453 -0.006415161146056081 0.0036675978628807108 0.00012541328632230462
422 -0.001888863301081772 -0.002469596524541622 0.0014766068899754068
204 -0.004965153534301356 -0.005155343208785421 0.0018650774277418707
82 0.006312811571014611 -0.0005129428707999649 -0.00028220242422638206
83 0.004851340002293885 0.001551431008707613 -0.0010610778947886105
753 -0.0007847901588301881 -0.00046028737613207165 0.0008177923147567364
752 -0.0004621622266320961 0.00140609561238133 0.002285564175048667
751 -3.2735246869732546e-05 0.003890304603142467 0.004239210384944579
478 0.0005360699054878999 -0.006322922186664623 0.004228615982669095
479 0.001435407794674956 -0.0018491377063945106 0.0009598441442410298
480 0.0021110791828499098 0.001512010763522708 -0.0014959798928117578
356 0.0011789535278890722 -0.0013511615842704747 -0.0006392678734277285
357 0.0026131409892648947 -0.0025466094521093456 -0.0028116419493045713
381 -0.001150937896589303 -0.003391628491780676 -0.00020138485332805945
84 0.0037533383107290217 0.0031023924233766144 -0.0016462460242954327
220 0.004939427570711082 0.002595578946288102 -0.003964323324675046
789 -0.0018658381757904545 -0.008609812126289397 0.00452441243140394
968 -0.0011821397562420208 -0.0019587979690500524 -0.0019042661869441845
476 0.003560244787572219 -0.0017901922676400565 0.003064684686438544
657 -0.0005590851533890553 -0.004709106298055787 0.0032483577796958473
723 0.0033650410833788343 0.0011783566091371185 0.003684300264009392
656 -0.002062497766319405 -0.00118962991303567 0.003155228096966751
721 -0.000124086679994956 0.0019103746940798405 0.002381332287627193
722 0.0018682220910824067 0.001492388839125522 0.003125333282669308
655 -0.004063582834524022 0.0034948935380714917 0.0030312698330058124
967 -0.0022316152193503492 -0.0027898367446066654 -0.0013669489581653667
374 -0.0007597618402610511 0.001687182981495216 9.594259359903311e-05
375 -0.0014571678060969961 0.001186443297677052 -6.396843700858323e-05
475 -0.001203434032123652 -0.0032656896352305656 0.002104549584308414
346 0.0005706635286923097 0.00022652356205880332 0.005558460693353196
334 0.0023341963327459603 0.0013603721178479986 0.0022459064677372185
335 -0.0010571401354504207 0.0007405096441725988 0.001133510402448464
336 -0.003605046819673296 0.0002748077727164638 0.000297768683267235
969 -0.003281090682458674 -0.0036208755201632744 -0.0008296317293865503
477 0.007139190498213859 -0.0006816530115996524 0.0037860329417402075
802 -0.0045027102120459885 -0.0002716390562436349 0.0006249962038818572
340 -0.002721462987285812 -0.002454867830240903 -0.0066577920087890555
1015 0.003434987958558274 0.0009463781100380485 0.0011132003607576795
788 -0.0010907705242982598 -0.002557047532823443 0.001277137719532792
803 -0.0012176657793627594 0.0022946233222776594 0.004102349931455585
787 -5.913337365177874e-05 0.005499354778272108 -0.003045077540866134
1017 0.0029076241417130993 0.0018026317274172548 0.0002718898187539325
804 0.0012503838366207001 0.004222652914452422 0.006714881270937939
972 0.005003717843067004 -0.003575037702168197 -0.0008339113356849271
214 0.0005770118126463167 -0.00027943312037925815 -0.0011619370841910157
341 -0.0018240116744699167 -0.0020310689576624186 -0.004752168059595457
970 -0.001215094557070082 -0.0006646441865386397 -0.0006799131515090988
971 -0.007433906957207149 0.0022457493290909125 -0.0005259149673332703
342 -0.001149757668672524 -0.00171266941508235 -0.0033204752614025973
651 0.0035633236353570796 0.003922197991557617 -0.0033458355060533834
650 0.003827757937338624 0.0015509855581655502 -0.0016565105053554707
385 0.003411206805473509 0.0015933015551025421 0.003696314156160105
537 -0.0010046244541475553 -0.005242682603362199 0.006605349884209353
215 0.004485862335561278 -0.0013900301611277607 -0.00459179355274761
984 0.0027457778336711595 -0.001811739821818582 -0.0018097877481957176
741 -0.002783179209903483 -0.0007383208462864535 0.0015504658280917991
740 -0.0009106439351407913 -0.0004155553291916079 0.002493556179896633
52 0.0021783524140152693 0.006213644002526658 0.002849724790499085
536 -0.00027138482299804987 -0.00021010261265510752 0.00241350627373427
387 -0.0003083757804669947 -0.002618092443116975 0.001328007750316796
535 0.0007045780395518544 0.0064884048944226155 -0.003165957131738187
386 0.0012873072198790034 -0.0008114247175181696 0.002343999782782761
484 -0.0021647954788418747 0.003861020728629058 0.003008671238178164
486 0.004250228582309791 -0.006296218084174366 -0.0018397876347709887
485 0.0014982141815858443 -0.0019388115931051957 0.00024017785132547225
6 0.004584060431090121 -0.0026095447194822144 0.004485714203563711
5 0.003842289144378257 -0.0026807409499261217 0.0032341357065643495
53 0.002051599770442068 0.002415286850795231 0.0032197508412490647
472 0.0038880622678592177 0.003793077144649893 0.003105336360127301
473 -0.0004872992389800865 -0.00024301885301203797 -0.00015577893364976058
54 0.0019563706739393455 -0.000438413944369219 0.0034977509326242088
743 0.003686294274610323 -0.0018674059145033213 0.0006897813667973348
844 -0.0015983234117852804 -0.001828827626026308 0.007538308026520017
390 -9.455862256997936e-06 0.003926392344691789 0.0008221589338088739
938 -0.0018994210958898803 -0.0004957809399565018 -0.00558130121653241
742 0.0053734776401945725 -0.0007563825263236759 -0.00770434404214303
388 -0.00042363520154375673 0.002221983021359724 -0.0063388364765933165
389 -0.00018713680239595853 0.003195208960525975 -0.0022498735800344128
1033 0.005826411509225982 -0.0009240887761029336 0.0015307023426844348
1034 0.007354923762774019 0.002141484201320057 0.00026924302992690184
500 0.0010799408348210128 -0.0009964865877118857 -0.005818533523224488
499 0.00044878822380080524 0.0003197799316933755 -0.005022641862212303
501 0.0015541249718017788 -0.001985395914304016 -0.006416485894517404
1035 0.004297899255677947 -0.003989661753525922 0.0027921616554419655
937 -0.0008716105901663225 0.0003758484180614937 -0.0019932243204874665
720 -0.010401741039907738 -0.002809477738729203 0.0011592300441131626
744 0.0024187156031940946 -0.0027021163431551996 0.006996276885072631
136 0.0030289614835588953 0.001993652084682833 0.001900773706529979
137 0.0023598243407099546 0.002560467005162437 0.0025699812637359053
138 0.0018571024742968234 0.0029863143187954908 0.003072756032363991
384 -0.004138394573254081 -0.0024844329727396397 0.00249441384301878
382 -0.0043371405298029565 0.003132085804686947 -0.0006870678985998562
383 -0.004223655630624136 -7.49734898020959e-05 0.0011295735111490157
754 8.577380189154918e-05 -0.0017240893995535565 0.0022400751384388986
755 -0.001530028842680414 0.0011893097333442629 0.0020869710176103936
756 -0.0027439792711023425 0.003378142718255153 0.0019719440904684706
529 9.153462452917913e-05 0.005432266065393319 0.009307239309991215
530 0.0012017929046873744 0.0032454537632602065 0.003920823896511702
135 0.001973563860685206 -0.004470884223337098 -0.004301027031992835
439 -0.002725421438507787 -2.5096493764766546e-05 0.0022729786004820856
38 -0.005976215141922593 0.0014191493112532393 3.266350653210228e-05
649 0.004179727535481734 -0.0016051658224945943 0.0005920292535682853
531 0.0020359285086763317 0.0016025045206835814 -0.00012598300829075662
645 -0.0009696500593103021 -0.0008456069615635599 0.0032110047267857687
134 0.001601342996454874 -0.0033455060286680625 -0.00666860739719975
133 0.001105906409666014 -0.0018475955534819682 -0.009819924391511454
643 0.002879221071837625 0.00348957519883596 0.004797874721251348
644 0.0006814971037368421 0.0010141652889304109 0.003891764305427471
934 -0.000567748780390037 -0.0013457592885094494 0.0008068470021219097
935 -0.0005053608069596973 -0.0014333931891927364 0.0001459295801633407
936 -0.00045848880354482617 -0.001499232424965827 -0.0003506168206198172
39 -0.006323971938325787 0.0003216078119853869 -0.0016960448495349138
37 -0.00551334092717676 0.0028800083509010286 0.002333623634745763
871 0.001438888879855149 -0.0046823635175403215 0.003602326256852145
925 0.0019025740705280207 0.0009770837578989338 -0.002474551179329226
932 0.0003198118544296887 0.00027846392460835777 -0.000861264477197237
933 0.00186693648619337 0.0005105835986117874 -0.002058822179131985
498 0.001784902103091719 -0.0017108277613055753 -0.006209825657487756
496 -0.0040227330178692206 0.005958859491240575 -0.0009716665827119476
931 -0.0017394551575980364 -3.0493982016782163e-05 0.0007327189808663037
497 -0.0007065453700086878 0.0015794311008360176 -0.003962680663229099
474 -0.0037745026567807807 -0.0032753325343723235 -0.002605850618649793
240 2.7627238734431107e-05 -0.00042156793912779145 -0.0017873624400433813
872 0.00017545176059496749 -0.004268334966785695 0.002464584280702688
873 -0.000773766906277781 -0.003957275854303162 0.0016098002116085824
927 -0.003154308885283257 -0.003522666736776003 0.004359851377402413
832 -0.002388067720447256 0.004478017379195856 0.00042623334072854286
926 -0.0009849304722785626 -0.0015922954641253134 0.001427925623550534
328 0.00045814873235409904 0.0035458517525388603 -0.0012145008170370082
1051 -0.0020017049462541722 -0.0051922910454528185 0.0016787061311713772
42 0.0005646489724121509 0.0024114395159367764 0.006118696985843089
41 0.0015206353436839862 0.0003674807042186408 0.003173931807175145
1052 0.0012182450184666251 0.0001355431501972733 0.0007250645286399067
597 -0.0009652304226449835 0.0034219810337867466 -0.00673885179067087
1053 0.003637389245208159 0.004138338062123999 8.59483115360092e-06
596 -0.0017495643913957137 0.0029936346871394597 -0.005406623461589192
222 0.0010235299463575245 -0.005254373024578133 -0.0023875191140650437
221 0.002703431151910761 -0.0018867814671839006 -0.003063960519951498
359 0.0015934435998103747 -0.00207805130371412 -0.0020936991219847796
360 0.0019495926589692572 -0.004374432893397888 -0.0019740314643296136
992 -0.003684049192220564 0.0021680550900926086 -0.0007458113131610757
571 -0.005290430039131927 0.002183146477802362 0.004631717407587722
265 -0.0036886529961866732 -0.0006546860893233892 -0.002533445027904175
595 -0.0027935352746075773 0.002423493482440391 -0.003633389557712108
573 -0.0019068451238594174 -0.0005957710003196038 0.0018459105313195368
572 -0.003358386743054926 0.0005963712029385042 0.0030410082531743005
218 -0.004064857286196384 0.001113496914140406 0.0023388362447154445
427 0.000457003850170458 -0.0014757834331357023 -0.0014417174956769608
738 0.0016573904351554045 -0.0011910488703888846 -0.0021774860828490342
428 0.0023470336008262083 -0.0017474143321059628 0.0006177240974474399
429 0.003767010497909785 -0.0019514902737349203 0.0021649798917623302
217 -0.001500985094822343 -0.0009675828610201951 0.007924574622432406
183 0.007376552042352596 0.006815593225790046 0.0015252764088090217
219 -0.005991091133871553 0.0026770094465175544 -0.0018577217442576175
277 0.0032120003323175806 -0.004055136785813686 -0.0021542382767063516
1025 0.0001467647063639095 -0.0049008784445122005 -0.004348215311057225
737 5.978439634921008e-05 -0.0025482422675694428 -0.0018925460332160097
182 0.0038498895994100195 0.005416052706688689 0.000497972730623794
40 0.002793080470528091 -0.002353086772052692 -0.000745634636341393
1016 0.003962351775403447 9.012449265884343e-05 0.001954510902761426
253 0.006284341991409028 -0.004193235011803331 0.0011616885336418886
255 0.004582627651421803 -0.0036531376273725388 -0.005439877718588679
254 0.005312654900722958 -0.003884836801931836 -0.002607837617057066
841 -0.0007781942397791547 -0.002875320697748005 -0.0016272047278566735
842 0.0009741821396717478 0.002609271199731675 -0.0018728544552129294
893 0.001194560290975246 0.0019038898876717395 0.0019643063135819224
892 0.0017762975667413431 0.0026114737003271756 -0.005039059453349088
216 0.007422576656998031 -0.002224420275508288 -0.0071686402632151185
363 0.0019371736523724754 -0.006488653480210016 -0.0007602173972700175
361 0.006256500229646648 -0.0011858522899568682 0.004572086072570296
362 0.0037901439341322934 -0.004213777329997599 0.0015273150886792738
321 -0.0034755576231959703 0.004061160211343688 -0.0029693422228325933
843 0.002290740237739731 0.00672983796946154 -0.002057410776350066
320 -0.0005430082079156235 0.002866640412842149 -0.002908699703509701
329 -0.0014978721435511212 0.0011601398882951455 0.0010996346843587719
163 0.006161528982965697 -0.0026405460422346872 0.0016149079769537378
358 0.0011193990439722805 0.0009784980896419902 -0.0022529801874894896
330 -0.002967428087331862 -0.0006322423369840642 0.002838241681186645
950 0.0025276326012668095 -0.0022738003297041727 0.003223529324781242
409 0.0004671142754618154 -0.0023191233795461295 0.002526129192600098
411 -0.002264419395892388 -0.0062717538397660255 0.004256848772884781
410 -0.0010926046173396205 -0.004576094424684669 0.0035143784153062203
80 -0.0011395102534936265 -0.006667985226685066 -0.0008452344413918175
79 0.0012367337643159853 -0.004947182590096105 -0.003162580259772567
81 -0.0029247792980428024 -0.007960822012745738 0.0008957844624176219
951 0.006062082324902339 -0.003370104682083508 0.00239449854201438
739 0.001581753924093917 1.4054779992538058e-05 0.0037488363370093655
1010 -0.0008628726727191563 0.0008495879313922375 0.006274463124282271
4 0.0028549704049346323 -0.0027755051633086753 0.0015682490294865578
735 -0.0013535425997463631 -0.0036652912668924346 -0.0004926548451354932
920 0.002944382736899612 -0.001155927278736903 -0.0024695037015537878
946 -0.00024341330154617024 0.006369113562246534 0.00829719184760019
947 0.000866368892497939 0.002769322026398789 0.004356794774644377
145 -0.004074183724440472 0.0017979729704675673 -0.003266706892322573
406 0.0033197946866606043 -0.0009187139592206892 0.00447698258462602
407 -0.00023148464934404447 0.002929600193091154 0.00016366053838207518
146 -0.00478105564423032 0.0020194799012046172 -0.0027539913364648433
921 0.004270988837865048 -0.0020046202222892377 -0.0031321383098710616
72 -0.0010187564715482091 -0.00224595395795191 0.0004162166576503766
71 -0.0005429685415625913 -0.0021102892602527148 8.523862860447177e-05
147 -0.005312127599552949 0.0021858977705960245 -0.0023687888052132916
948 0.001700146813607695 6.480332057032072e-05 0.001396379571131463
408 -0.0028995562024332405 0.005820833617912438 -0.003076932713244033
70 9.031876369051663e-05 -0.0019297156781811838 -0.00035530256822412763
373 0.00016850539170727892 0.002353681782774364 0.00030878873632654363
266 -0.002845623604048987 0.0007511514125376382 0.002275592737587843
267 -0.0022122567165793125 0.001807355301922834 0.005888616565298406
442 -0.000258317328216795 -3.87172173939162e-05 -0.00024564648561699093
736 -0.0020666748082848025 -0.004354705389140802 -0.0015132827000830292
444 -0.0040298086999921885 -0.0022041846762720866 0.001572048479501821
309 0.0016007055833264295 -0.0006617521670687855 0.0033211371231666
308 -6.857616067293095e-05 0.0009181227963859151 0.003821281125279714
307 -0.0022904377732563446 0.0030209814340006365 0.004486987057219381
97 -0.003928722009959804 -0.00542127508770021 0.004865622538224796
717 0.0016213211121261072 0.005470733448118215 0.0028438846393330822
443 -0.002411857080732226 -0.0012752095743358443 0.0007922661010656076
642 0.002643614117170669 0.003170064684670666 0.0033311082427956063
540 0.001174354309166418 0.0013019096236786252 -0.0004980748789472835
298 -0.0057684331229434505 0.0007439193476466103 -0.003363386213323092
919 0.0011786321790026649 -2.6292764414875824e-05 -0.00158751813819286
1040 0.0016191452909235186 0.0034537924271414253 -0.0005750005081070986
98 -0.0025371626523077243 -0.0023146299931229167 0.0012701559856036428
99 -0.001491685914123675 1.9388431828982686e-05 -0.0014311133659435397
1039 0.003709965857047427 0.004963506761328783 0.00025681450151867247
641 0.0012567027359431553 0.0006363357236765437 0.0032715940063993477
1041 0.005800786423171351 0.006473221095516147 0.0010886295111444428
640 -0.0005893158700122174 -0.0027361297905248096 0.003192378860288507
876 0.0023729917075562225 -0.002634205029724026 0.00203506332658691
875 0.0024932492462816764 0.0034849261580070148 -0.0005728878098342274
874 0.0026533154603155733 0.01162966429898005 -0.004044145156496764
555 -0.0024698537071236805 -0.0015360133581859708 0.0008938177503617483
288 0.0031888756188915668 -0.001131411354808496 -0.006909614836198646
816 0.0014532174671952785 0.003327388476768443 0.0034552429007918993
287 0.004439408749499897 -0.00039996305537070556 -0.005583015167733095
286 0.0061039040140952565 0.0005736154935784707 -0.0038172731716769586
815 0.0012093278959246824 0.0025779878008072494 -0.0005599949038633993
943 0.0018641250697136228 -0.006758072895563824 -0.006737294795540748
1028 0.004952788337383571 0.004413914905579923 0.00498066027227325
944 1.5911828767042207e-05 -0.003963783872223251 -0.004197471286435632
814 0.0008847039203354631 0.0015805141266670344 -0.005904390944631895
1027 0.00518316057190852 0.0004533793029892569 0.001977923148437522
1011 -0.0007492743685024333 0.0005168888535922918 -0.00017856739506094546
1029 0.005413532806433493 -0.003507156299601445 -0.0010248139753982182
1009 -0.0008060735206107942 0.0006832383924922667 0.0030479478646106613
945 -0.0013726483788791832 -0.0018644381579342615 -0.0022893051825170515
987 -0.0006926448500343884 0.0023704201809561756 -0.004021286871953349
260 0.0023805787245220573 0.0008630768838685141 0.0017896336980482244
261 0.002370266358361279 -0.0010965024680648374 6.996451913206204e-05
985 0.001877243866318555 0.0005759497130699832 -0.00503438531686821
986 0.004447132582671495 -0.001218520754816208 -0.00604748376178307
259 0.002394304778011774 0.003471332892491991 0.004078562423658323
316 -0.0008929991579603317 0.003400830828301026 6.45373622293157e-05
858 0.0036094023430448536 -0.0008115497888301061 0.003765343439069274
206 -0.0018345604028904355 -0.00044864485913102787 -0.0011904347263441183
205 -0.003484027774490539 -0.0007681300816660446 0.0014103516533128019
541 -0.0016294977571907853 -0.0027454349312388627 -0.0036400702940128354
542 -0.0017065401836597969 -0.000960034907480936 -0.0006900989955114878
543 -0.0017644220586108684 0.00038133381166706535 0.0015262106099209998
377 -0.002714588140932719 0.0010464740517523014 0.0029001867678538846
881 -0.007235626940469742 0.002150289106323189 -0.0009317384427976011
882 -0.007533760416941053 0.0010074960375438913 0.0003041599510714226
880 -0.006838802779911554 0.0036713792756577768 -0.002576754455380395
283 -0.0022807991649768863 0.003213610835073903 -0.00340565666923166
33 -6.775130019204235e-05 0.0032035064413475384 -0.0029442515021278213
103 0.0028245153575792697 0.0034695537346946734 0.004960854495056998
279 -0.0019219880000358636 -0.004526392256742729 -0.0034042319044959215
278 0.00028046824784434365 -0.004324225931245917 -0.002867990663356682
207 -0.0005953177087726835 -0.0002086160263563456 -0.003144402155735705
378 -0.0036470213315409066 0.0018708745819009365 0.004184467597169601
34 -0.0006839558965666221 0.0007882461374653292 0.0029609757986418803
35 0.0014971202709365436 0.0008411427618169774 -2.047423029078588e-05
819 -0.005212084506536166 0.0010222658092062147 0.0035779842562998617
448 -0.004926019478349737 0.004675313300887224 0.0026447922990345245
36 0.0031357599630152215 0.000880883926995459 -0.0022604337650148788
818 -0.0027934113902111433 0.0016799261411063664 0.0027134176013447215
449 -0.0008446034774657963 0.0026374122245469965 0.000944027183902264
450 0.002221759063458046 0.0011063397925173586 -0.00033375543831073756
174 -0.007343027518819633 -0.0007466494568384993 -0.0006202972297129255
820 0.0009790781282787641 -0.003239509816038752 6.2610291972418734e-06
614 -0.0022500639399384006 -0.0027634203428950743 0.000997157444380918
615 -0.0019242274937814681 -0.0031899270842370457 0.0009195048255029247
786 0.0030387091255740443 -0.0011996553053438197 0.0012929706550484186
785 0.0022059037146824733 0.0001411002929667159 0.001521491112464671
319 0.0033602987061135585 0.0012767004908954078 -0.0028279827806425815
483 0.002973526192133943 1.3685729973070097e-06 -0.004026990331645288
482 4.8471648013219924e-05 0.0020770753126034824 -0.002849325306403524
883 0.002874637014172538 0.0010267560611003502 0.0014311425590740044
481 -0.003844859378733469 0.00483990018640947 -0.0012818195683980626
784 0.0010974159594767511 0.0019256842354025245 0.0018256583591552752
884 0.003183595392199666 0.000527473163866191 0.0008229063448927846
226 0.002721502595557659 -0.006623230066355946 0.004422779068448516
885 0.0034157154203668006 0.00015236257159351364 0.0003659392670955949
22 -0.0010035392108238262 -3.355474022389535e-05 0.0004491948858473269
561 -0.0010705454869363073 0.003790232316124122 -0.0016713450390398597
579 -0.005049702002998464 0.0017850338546302616 0.0005920003800859049
456 -0.005117936974697991 -0.0006186019469012801 0.003254557451110653
993 -0.001784277128699782 0.005376841038571389 0.000426368120577556
19 -0.0034927992189873634 -0.003506158229630507 0.0023049852846309792
228 0.0020843601959866748 0.0035549194909972213 -0.0003392356682817505
455 -0.0032735176925202418 0.0012058234587434423 0.0031851337216626517
454 -0.0008185430213415623 0.0036341857099905193 0.0030927287576609755
1048 0.0017638698740451355 -0.0016688264019545536 0.0007318188160865531
991 -0.0027341631604601716 0.003772448064332002 -0.0001597215962917582
227 0.002357691214267588 -0.0008114576086904388 0.0017036457000522945
733 -0.0011981972365456388 0.0013706134452781504 -0.0017800350626730771
21 -0.0010238710666153538 -0.003090658704658049 0.0015429505794193432
20 -0.00208302934332815 -0.0032689059980926553 0.001869859794817883
625 -0.0016273230839087055 -0.0027109113829172065 0.011410300429786979
734 -0.0012869001877243984 -0.001504912419290892 -0.0010449347530668922
626 -0.00021056222146808808 0.0018413948465617154 0.004616307454843304
627 0.0008538483745343951 0.005261536604683228 -0.000488010643864379
1049 0.0020684209447198298 -0.0038312036747741684 -0.0026930802690307443
613 -0.0026837615432933476 -0.0021957277053266827 0.0011005152949186093
376 -0.001473492969336692 -5.0826567460220975e-05 0.0011907723537257857
903 0.00464091870460179 0.0011025324045637434 0.0015338926265247264
902 0.0031554086920917235 0.003240393774390735 0.0005320757405557483
64 0.0049079485041254554 -0.0005731539488944182 -0.004517737066019214
318 -0.004824220276416477 0.0017344454538513522 0.002789228926236038
828 0.0012078218802933033 -0.0001804273872282345 0.001047829382311263
827 0.0004435653785665412 -5.61549931561076e-05 0.0014367285651548805
826 -0.0005736818233861098 0.0001092551078560571 0.0019543644697176898
65 0.0006639353509632949 -0.0026574746158873233 0.00016813180525550135
66 -0.0025245862193020593 -0.00422342202608914 0.0036886190027002135
513 -0.0008547876361362368 0.0037858555800727644 0.009293581020646126
415 -0.00239690583263238 -0.00436375494175029 0.0020401462524719293
586 -0.0019116318005828969 -0.00030869086324177757 -0.004906549845761247
512 0.0006441329204427022 0.002591502766710777 0.007215364067237383
317 -0.0031377453657550933 0.002449316747228538 0.0016203493787552167
901 0.001178152495665188 0.0060859482337974405 -0.000801371108530012
281 0.0006476788320971068 0.0013103774914536277 -0.0003486494788251986
955 0.0007486300974761269 -0.00032825232956276555 -0.004964283170960088
416 0.00022843989763692428 -0.0007119831833977471 0.0011929649288503913
181 -0.0008441986997529665 0.0035532243580144547 -0.0008693977658370952
282 -0.002652933758446819 0.0019483608719356737 -0.0005869331948749304
900 -0.0015329093247436927 -0.0010055172239298539 0.0005005520218941672
716 0.003672777736644431 0.0012005140250288268 -0.0009454930465368661
1004 0.001152537360610455 0.0019163665244227384 0.003116001773024086
1003 6.147203759914434e-05 0.0008385723501403354 0.003873513538092939
49 -0.001030030278145193 -0.004499825660691468 0.0017122977901481496
50 0.00252932991382583 -0.0013561827634336514 0.0027417889570061915
1005 -0.0010295932854121701 -0.00023922182414207172 0.004631025303161796
511 0.0026392389335209653 0.001001785106747543 0.004449198027263785
51 0.005203472603507965 0.0010056320626230409 0.003515244333665126
417 0.0022008587352483453 0.002031588196091779 0.0005564787006490165
715 0.006403325015605726 -0.004483269822471302 -0.005989262827210771
518 0.0016954949613533004 0.0026710940940628527 0.0020422390590368517
517 0.0031705678756343003 -0.0003283147978329257 0.0055450871158805835
465 0.004058367935890735 -0.004011014480901087 -0.0012054904469510747
519 0.0005872745965330947 0.004924546099207937 -0.0005894461369165328
554 -0.0011704028939043864 -0.0014171278119804538 0.0007529882535888174
553 0.0005592032014782537 -0.0012588877591226376 0.0005655401766395312
23 -3.204456248743389e-05 -0.0003556571976137446 0.0013976552509160965
24 0.000697838105126337 -0.0005976523555358583 0.002110232291425555
63 -0.0017087285947762609 -0.002375745800555939 0.0028013361935118543
61 0.008838980955944913 0.0032860881249811443 -0.003928490899438507
1046 -0.00058834383656803 0.003173242848194276 0.0014317093716447946
62 0.0028161879607240693 5.315366249426535e-05 -8.57271904494255e-05
113 -0.0031628498804770924 -0.001411886131941279 -0.00014620334841054764
114 -0.0017946827697842569 -0.0014809861045123598 -0.0006405758956478972
112 -0.004983919327725984 -0.0013199120975770054 0.0005118206124758118
1045 -0.004190631766517751 0.00102468865740448 0.0020240648647664007
463 0.0008038727101941183 0.00620199784419228 0.0012241137553109622
1047 -0.007792919696467469 -0.0011238655333853287 0.002616420357887999
464 0.0026622051712889613 0.0003703185781026262 -0.0001632019552873064
423 0.0004950867665718642 0.002599715504747211 0.0009619117398169358
667 -0.0010473138089513384 -0.00043702323625394147 0.006081261729725459
669 0.0015356573450402656 -0.0008816300694924641 -0.004074451789699493
495 0.00012585634759848334 -0.0038632214833500406 -0.003082613476928385
467 -0.0016467548792402286 -0.001396798709802114 -0.0002945263501094003
468 0.0007624900304583917 -0.003999727446823525 -0.005538793932255112
587 -0.0015112966700865844 0.00013514807108135765 -0.003962455880707365
118 0.0011126693919409985 0.0014283790739620759 -0.0006199152154450485
451 -0.003972312322477829 0.004326825584038459 0.0034759433744976937
850 -0.0008318288101987325 -0.0036378269379546725 0.0026953622890234685
852 -0.005681192096763375 0.0074575664014887326 -0.005960792065564028
466 -0.004853528570628194 0.002067773680010306 0.006685743378935025
119 0.002426310438251283 -0.0006993047443369924 -0.002629324624906837
668 0.00042757517033938493 -0.000690895881113906 0.00028230035786249363
588 -0.001210525406460457 0.0004686036860241245 -0.0032531593108584434
851 -0.0036008386215852944 0.0026976961405558325 -0.0022473435715863817

Bonds

1 2 725 726
2 2 197 198
3 1 724 725
4 2 863 864
5 1 223 224
6 1 862 863
7 2 224 225
8 2 230 231
9 2 251 252
10 1 349 350
11 1 196 197
12 1 274 275
13 2 77 78
14 2 275 276
15 2 458 459
16 1 211 212
17 1 76 77
18 2 212 213
19 1 457 458
20 2 29 30
21 1 121 122
22 1 28 29
23 2 332 333
24 3 1012 1013
25 3 1012 1014
26 2 305 306
27 1 304 305
28 2 179 180
29 2 524 525
30 2 959 960
31 1 958 959
32 2 692 693
33 2 608 609
34 2 314 315
35 1 313 314
36 1 178 179
37 1 607 608
38 2 533 534
39 1 532 533
40 2 350 351
41 3 988 989
42 3 988 990
43 1 421 422
44 1 187 188
45 2 188 189
46 2 665 666
47 1 664 665
48 1 772 773
49 2 773 774
50 1 250 251
51 2 170 171
52 1 703 704
53 1 370 371
54 2 704 705
55 2 371 372
56 1 706 707
57 2 707 708
58 1 55 56
59 2 323 324
60 1 322 323
61 1 610 611
62 1 907 908
63 2 908 909
64 2 56 57
65 2 611 612
66 1 694 695
67 2 503 504
68 1 691 692
69 1 583 584
70 1 232 233
71 1 523 524
72 2 233 234
73 2 728 729
74 1 727 728
75 3 979 980
76 3 979 981
77 2 584 585
78 2 896 897
79 1 895 896
80 2 404 405
81 1 793 794
82 2 800 801
83 2 545 546
84 2 185 186
85 1 544 545
86 1 403 404
87 1 184 185
88 1 229 230
89 1 916 917
90 1 718 719
91 2 623 624
92 2 269 270
93 1 268 269
94 2 845 846
95 1 622 623
96 2 719 720
97 1 331 332
98 1 193 194
99 2 470 471
100 2 176 177
101 2 659 660
102 1 658 659
103 1 175 176
104 1 469 470
105 2 782 783
106 2 866 867
107 2 194 195
108 1 865 866
109 3 994 995
110 3 994 996
111 2 338 339
112 1 88 89
113 1 391 392
114 2 89 90
115 1 337 338
116 1 847 848
117 2 848 849
118 2 698 699
119 1 262 263
120 1 580 581
121 2 917 918
122 1 343 344
123 1 526 527
124 2 434 435
125 1 433 434
126 2 131 132
127 1 130 131
128 2 128 129
129 1 127 128
130 2 833 834
131 2 380 381
132 2 638 639
133 2 878 879
134 1 169 170
135 2 674 675
136 1 673 674
137 2 74 75
138 1 877 878
139 1 73 74
140 1 379 380
141 1 355 356
142 2 548 549
143 2 347 348
144 1 637 638
145 1 502 503
146 1 781 782
147 2 695 696
148 1 766 767
149 2 767 768
150 3 1018 1019
151 3 1018 1020
152 3 1000 1001
153 3 1000 1002
154 2 620 621
155 2 392 393
156 1 619 620
157 2 836 837
158 1 835 836
159 3 982 983
160 3 982 984
161 1 301 302
162 2 302 303
163 2 506 507
164 2 68 69
165 3 1021 1022
166 3 1021 1023
167 1 67 68
168 2 149 150
169 2 521 522
170 2 344 345
171 1 505 506
172 1 148 149
173 1 520 521
174 2 629 630
175 1 490 491
176 2 491 492
177 2 869 870
178 1 247 248
179 1 628 629
180 2 248 249
181 1 868 869
182 1 115 116
183 3 964 965
184 3 964 966
185 2 956 957
186 2 47 48
187 1 46 47
188 1 823 824
189 2 824 825
190 1 538 539
191 2 539 540
192 2 746 747
193 1 745 746
194 2 299 300
195 1 601 602
196 2 602 603
197 1 646 647
198 1 676 677
199 2 677 678
200 2 647 648
201 2 581 582
202 1 697 698
203 1 811 812
204 2 110 111
205 2 515 516
206 2 527 528
207 1 910 911
208 2 911 912
209 2 419 420
210 1 418 419
211 1 514 515
212 1 109 110
213 2 446 447
214 1 856 857
215 2 857 858
216 2 116 117
217 2 431 432
218 3 1036 1037
219 3 1036 1038
220 2 401 402
221 1 700 701
222 2 887 888
223 2 701 702
224 1 634 635
225 2 635 636
226 1 886 887
227 1 508 509
228 1 430 431
229 1 400 401
230 3 997 998
231 3 997 999
232 2 860 861
233 1 547 548
234 2 296 297
235 1 295 296
236 3 1024 1025
237 3 1024 1026
238 1 859 860
239 1 139 140
240 2 140 141
241 1 805 806
242 2 779 780
243 1 778 779
244 2 101 102
245 1 445 446
246 2 806 807
247 1 949 950
248 2 509 510
249 1 556 557
250 3 1030 1031
251 3 1030 1032
252 1 142 143
253 2 143 144
254 2 557 558
255 2 164 165
256 1 769 770
257 3 976 977
258 3 976 978
259 1 244 245
260 2 245 246
261 1 160 161
262 1 424 425
263 2 770 771
264 2 425 426
265 2 653 654
266 2 11 12
267 1 10 11
268 1 661 662
269 1 280 281
270 2 758 759
271 1 688 689
272 2 689 690
273 2 395 396
274 2 122 123
275 1 757 758
276 1 394 395
277 1 256 257
278 2 257 258
279 2 167 168
280 1 709 710
281 2 86 87
282 1 166 167
283 1 85 86
284 2 710 711
285 1 487 488
286 2 488 489
287 2 812 813
288 1 1 2
289 3 973 974
290 3 973 975
291 1 550 551
292 2 551 552
293 2 2 3
294 3 1042 1043
295 3 1042 1044
296 2 839 840
297 2 161 162
298 2 32 33
299 2 158 159
300 2 284 285
301 2 776 777
302 2 566 567
303 1 775 776
304 1 565 566
305 1 712 713
306 2 713 714
307 1 31 32
308 2 104 105
309 2 662 663
310 2 821 822
311 2 854 855
312 1 172 173
313 2 173 174
314 2 92 93
315 1 91 92
316 1 853 854
317 1 589 590
318 1 124 125
319 2 461 462
320 1 310 311
321 1 151 152
322 2 311 312
323 2 590 591
324 2 152 153
325 1 100 101
326 2 890 891
327 2 605 606
328 1 889 890
329 2 125 126
330 1 604 605
331 1 460 461
332 2 671 672
333 2 563 564
334 1 670 671
335 2 59 60
336 1 58 59
337 2 794 795
338 1 838 839
339 1 652 653
340 1 562 563
341 1 157 158
342 1 577 578
343 2 578 579
344 2 632 633
345 1 367 368
346 1 352 353
347 2 353 354
348 1 763 764
349 2 764 765
350 1 631 632
351 2 368 369
352 1 208 209
353 2 791 792
354 2 203 204
355 1 940 941
356 2 941 942
357 1 790 791
358 2 953 954
359 1 952 953
360 2 14 15
361 2 680 681
362 1 748 749
363 1 559 560
364 1 94 95
365 1 13 14
366 1 817 818
367 1 679 680
368 2 560 561
369 2 95 96
370 2 155 156
371 1 154 155
372 3 961 962
373 3 961 963
374 2 200 201
375 1 199 200
376 2 749 750
377 2 593 594
378 1 592 593
379 1 202 203
380 2 209 210
381 2 599 600
382 1 598 599
383 3 1006 1007
384 3 1006 1008
385 2 17 18
386 2 44 45
387 1 43 44
388 1 799 800
389 1 493 494
390 1 16 17
391 1 7 8
392 2 8 9
393 2 365 366
394 1 904 905
395 2 107 108
396 1 364 365
397 1 682 683
398 1 106 107
399 2 905 906
400 2 683 684
401 2 191 192
402 1 616 617
403 2 617 618
404 1 913 914
405 2 293 294
406 2 914 915
407 1 25 26
408 2 26 27
409 1 898 899
410 2 899 900
411 1 292 293
412 2 809 810
413 1 922 923
414 1 412 413
415 1 436 437
416 2 413 414
417 1 808 809
418 2 440 441
419 2 437 438
420 2 923 924
421 2 263 264
422 2 452 453
423 1 289 290
424 2 290 291
425 1 241 242
426 2 242 243
427 1 235 236
428 1 190 191
429 2 236 237
430 2 494 495
431 1 238 239
432 2 239 240
433 2 422 423
434 1 82 83
435 2 83 84
436 2 752 753
437 1 751 752
438 1 478 479
439 2 479 480
440 2 356 357
441 1 220 221
442 2 476 477
443 2 656 657
444 1 721 722
445 2 722 723
446 1 655 656
447 3 967 968
448 3 967 969
449 2 374 375
450 1 475 476
451 1 346 347
452 1 334 335
453 2 335 336
454 1 802 803
455 1 340 341
456 3 1015 1016
457 3 1015 1017
458 2 788 789
459 2 803 804
460 1 787 788
461 1 214 215
462 2 341 342
463 3 970 971
464 3 970 972
465 2 650 651
466 1 385 386
467 2 215 216
468 2 740 741
469 1 52 53
470 2 536 537
471 1 535 536
472 2 386 387
473 1 484 485
474 2 485 486
475 2 5 6
476 2 53 54
477 1 472 473
478 2 473 474
479 2 743 744
480 1 844 845
481 2 938 939
482 1 742 743
483 1 388 389
484 2 389 390
485 3 1033 1034
486 3 1033 1035
487 2 500 501
488 1 499 500
489 1 937 938
490 1 136 137
491 2 137 138
492 1 382 383
493 2 383 384
494 1 754 755
495 2 755 756
496 1 529 530
497 2 530 531
498 1 439 440
499 2 38 39
500 1 649 650
501 2 134 135
502 1 133 134
503 1 643 644
504 2 644 645
505 1 934 935
506 2 935 936
507 1 37 38
508 1 871 872
509 1 925 926
510 2 932 933
511 1 496 497
512 1 931 932
513 2 497 498
514 2 872 873
515 1 832 833
516 2 926 927
517 1 328 329
518 1 1051 1052
519 2 41 42
520 2 1052 1053
521 2 596 597
522 2 221 222
523 2 359 360
524 1 571 572
525 1 265 266
526 1 595 596
527 2 572 573
528 2 218 219
529 1 427 428
530 2 428 429
531 1 217 218
532 1 277 278
533 2 737 738
534 2 182 183
535 1 40 41
536 1 253 254
537 2 254 255
538 1 841 842
539 2 842 843
540 2 893 894
541 1 892 893
542 1 361 362
543 2 362 363
544 2 320 321
545 2 329 330
546 1 163 164
547 1 358 359
548 2 950 951
549 1 409 410
550 2 410 411
551 2 80 81
552 1 79 80
553 1 739 740
554 1 4 5
555 2 920 921
556 1 946 947
557 2 947 948
558 1 145 146
559 1 406 407
560 2 407 408
561 2 146 147
562 2 71 72
563 1 70 71
564 1 373 374
565 2 266 267
566 1 442 443
567 1 736 737
568 2 308 309
569 1 307 308
570 1 97 98
571 2 443 444
572 1 298 299
573 1 919 920
574 2 98 99
575 3 1039 1040
576 3 1039 1041
577 2 641 642
578 1 640 641
579 2 875 876
580 1 874 875
581 2 287 288
582 1 286 287
583 2 815 816
584 1 943 944
585 2 944 945
586 1 814 815
587 3 1027 1028
588 3 1027 1029
589 3 1009 1010
590 3 1009 1011
591 2 260 261
592 3 985 986
593 3 985 987
594 1 259 260
595 1 316 317
596 2 206 207
597 1 205 206
598 1 541 542
599 2 542 543
600 2 377 378
601 2 881 882
602 1 880 881
603 1 283 284
604 1 103 104
605 2 278 279
606 1 34 35
607 2 35 36
608 1 448 449
609 2 818 819
610 2 449 450
611 1 820 821
612 2 614 615
613 2 785 786
614 1 319 320
615 2 482 483
616 1 883 884
617 1 481 482
618 1 784 785
619 2 884 885
620 1 226 227
621 1 22 23
622 1 19 20
623 2 455 456
624 1 454 455
625 3 1048 1049
626 3 1048 1050
627 3 991 992
628 3 991 993
629 2 227 228
630 1 733 734
631 2 20 21
632 1 625 626
633 2 734 735
634 2 626 627
635 1 613 614
636 1 376 377
637 2 902 903
638 1 64 65
639 2 827 828
640 1 826 827
641 2 65 66
642 1 415 416
643 1 586 587
644 2 512 513
645 2 317 318
646 1 901 902
647 2 281 282
648 1 955 956
649 2 416 417
650 1 181 182
651 2 716 717
652 3 1003 1004
653 3 1003 1005
654 1 49 50
655 2 50 51
656 1 511 512
657 1 715 716
658 2 518 519
659 1 517 518
660 2 554 555
661 1 553 554
662 2 23 24
663 1 61 62
664 2 62 63
665 2 113 114
666 1 112 113
667 3 1045 1046
668 3 1045 1047
669 1 463 464
670 2 464 465
671 1 667 668
672 2 467 468
673 2 587 588
674 1 118 119
675 1 451 452
676 1 850 851
677 1 466 467
678 2 119 120
679 2 668 669
680 2 851 852

Angles

1 1 724 725 726
2 1 196 197 198
3 1 862 863 864
4 1 223 224 225
5 1 229 230 231
6 1 250 251 252
7 1 76 77 78
8 1 274 275 276
9 1 457 458 459
10 1 211 212 213
11 1 28 29 30
12 1 331 332 333
13 2 1013 1012 1014
14 1 304 305 306
15 1 178 179 180
16 1 523 524 525
17 1 958 959 960
18 1 691 692 693
19 1 607 608 609
20 1 313 314 315
21 1 532 533 534
22 1 349 350 351
23 2 989 988 990
24 1 187 188 189
25 1 664 665 666
26 1 772 773 774
27 1 169 170 171
28 1 703 704 705
29 1 370 371 372
30 1 706 707 708
31 1 322 323 324
32 1 907 908 909
33 1 55 56 57
34 1 610 611 612
35 1 502 503 504
36 1 232 233 234
37 1 727 728 729
38 2 980 979 981
39 1 583 584 585
40 1 895 896 897
41 1 403 404 405
42 1 799 800 801
43 1 544 545 546
44 1 184 185 186
45 1 622 623 624
46 1 268 269 270
47 1 844 845 846
48 1 718 719 720
49 1 469 470 471
50 1 175 176 177
51 1 658 659 660
52 1 781 782 783
53 1 865 866 867
54 1 193 194 195
55 2 995 994 996
56 1 337 338 339
57 1 88 89 90
58 1 847 848 849
59 1 697 698 699
60 1 916 917 918
61 1 433 434 435
62 1 130 131 132
63 1 127 128 129
64 1 832 833 834
65 1 379 380 381
66 1 637 638 639
67 1 877 878 879
68 1 673 674 675
69 1 73 74 75
70 1 547 548 549
71 1 346 347 348
72 1 694 695 696
73 1 766 767 768
74 2 1019 1018 1020
75 2 1001 1000 1002
76 1 619 620 621
77 1 391 392 393
78 1 835 836 837
79 2 983 982 984
80 1 301 302 303
81 1 505 506 507
82 1 67 68 69
83 2 1022 1021 1023
84 1 148 149 150
85 1 520 521 522
86 1 343 344 345
87 1 628 629 630
88 1 490 491 492
89 1 868 869 870
90 1 247 248 249
91 2 965 964 966
92 1 955 956 957
93 1 46 47 48
94 1 823 824 825
95 1 538 539 540
96 1 745 746 747
97 1 298 299 300
98 1 601 602 603
99 1 676 677 678
100 1 646 647 648
101 1 580 581 582
102 1 109 110 111
103 1 514 515 516
104 1 526 527 528
105 1 910 911 912
106 1 418 419 420
107 1 445 446 447
108 1 856 857 858
109 1 115 116 117
110 1 430 431 432
111 2 1037 1036 1038
112 1 400 401 402
113 1 886 887 888
114 1 700 701 702
115 1 634 635 636
116 2 998 997 999
117 1 859 860 861
118 1 295 296 297
119 2 1025 1024 1026
120 1 139 140 141
121 1 778 779 780
122 1 100 101 102
123 1 805 806 807
124 1 508 509 510
125 2 1031 1030 1032
126 1 142 143 144
127 1 556 557 558
128 1 163 164 165
129 2 977 976 978
130 1 244 245 246
131 1 769 770 771
132 1 424 425 426
133 1 652 653 654
134 1 10 11 12
135 1 757 758 759
136 1 688 689 690
137 1 394 395 396
138 1 121 122 123
139 1 256 257 258
140 1 166 167 168
141 1 85 86 87
142 1 709 710 711
143 1 487 488 489
144 1 811 812 813
145 2 974 973 975
146 1 550 551 552
147 1 1 2 3
148 2 1043 1042 1044
149 1 838 839 840
150 1 160 161 162
151 1 31 32 33
152 1 157 158 159
153 1 283 284 285
154 1 775 776 777
155 1 565 566 567
156 1 712 713 714
157 1 103 104 105
158 1 661 662 663
159 1 820 821 822
160 1 853 854 855
161 1 172 173 174
162 1 91 92 93
163 1 460 461 462
164 1 310 311 312
165 1 589 590 591
166 1 151 152 153
167 1 889 890 891
168 1 604 605 606
169 1 124 125 126
170 1 670 671 672
171 1 562 563 564
172 1 58 59 60
173 1 793 794 795
174 1 577 578 579
175 1 631 632 633
176 1 352 353 354
177 1 763 764 765
178 1 367 368 369
179 1 790 791 792
180 1 202 203 204
181 1 940 941 942
182 1 952 953 954
183 1 13 14 15
184 1 679 680 681
185 1 559 560 561
186 1 94 95 96
187 1 154 155 156
188 2 962 961 963
189 1 199 200 201
190 1 748 749 750
191 1 592 593 594
192 1 208 209 210
193 1 598 599 600
194 2 1007 1006 1008
195 1 16 17 18
196 1 43 44 45
197 1 7 8 9
198 1 364 365 366
199 1 106 107 108
200 1 904 905 906
201 1 682 683 684
202 1 190 191 192
203 1 616 617 618
204 1 292 293 294
205 1 913 914 915
206 1 25 26 27
207 1 898 899 900
208 1 808 809 810
209 1 412 413 414
210 1 439 440 441
211 1 436 437 438
212 1 922 923 924
213 1 262 263 264
214 1 451 452 453
215 1 289 290 291
216 1 241 242 243
217 1 235 236 237
218 1 493 494 495
219 1 238 239 240
220 1 421 422 423
221 1 82 83 84
222 1 751 752 753
223 1 478 479 480
224 1 355 356 357
225 1 475 476 477
226 1 655 656 657
227 1 721 722 723
228 2 968 967 969
229 1 373 374 375
230 1 334 335 336
231 2 1016 1015 1017
232 1 787 788 789
233 1 802 803 804
234 1 340 341 342
235 2 971 970 972
236 1 649 650 651
237 1 214 215 216
238 1 739 740 741
239 1 535 536 537
240 1 385 386 387
241 1 484 485 486
242 1 4 5 6
243 1 52 53 54
244 1 472 473 474
245 1 742 743 744
246 1 937 938 939
247 1 388 389 390
248 2 1034 1033 1035
249 1 499 500 501
250 1 136 137 138
251 1 382 383 384
252 1 754 755 756
253 1 529 530 531
254 1 37 38 39
255 1 133 134 135
256 1 643 644 645
257 1 934 935 936
258 1 931 932 933
259 1 496 497 498
260 1 871 872 873
261 1 925 926 927
262 1 40 41 42
263 1 1051 1052 1053
264 1 595 596 597
265 1 220 221 222
266 1 358 359 360
267 1 571 572 573
268 1 217 218 219
269 1 427 428 429
270 1 736 737 738
271 1 181 182 183
272 1 253 254 255
273 1 841 842 843
274 1 892 893 894
275 1 361 362 363
276 1 319 320 321
277 1 328 329 330
278 1 949 950 951
279 1 409 410 411
280 1 79 80 81
281 1 919 920 921
282 1 946 947 948
283 1 406 407 408
284 1 145 146 147
285 1 70 71 72
286 1 265 266 267
287 1 307 308 309
288 1 442 443 444
289 1 97 98 99
290 2 1040 1039 1041
291 1 640 641 642
292 1 874 875 876
293 1 286 287 288
294 1 814 815 816
295 1 943 944 945
296 2 1028 1027 1029
297 2 1010 1009 1011
298 1 259 260 261
299 2 986 985 987
300 1 205 206 207
301 1 541 542 543
302 1 376 377 378
303 1 880 881 882
304 1 277 278 279
305 1 34 35 36
306 1 817 818 819
307 1 448 449 450
308 1 613 614 615
309 1 784 785 786
310 1 481 482 483
311 1 883 884 885
312 1 454 455 456
313 2 1049 1048 1050
314 2 992 991 993
315 1 226 227 228
316 1 19 20 21
317 1 733 734 735
318 1 625 626 627
319 1 901 902 903
320 1 826 827 828
321 1 64 65 66
322 1 511 512 513
323 1 316 317 318
324 1 280 281 282
325 1 415 416 417
326 1 715 716 717
327 2 1004 1003 1005
328 1 49 50 51
329 1 517 518 519
330 1 553 554 555
331 1 22 23 24
332 1 61 62 63
333 1 112 113 114
334 2 1046 1045 1047
335 1 463 464 465
336 1 466 467 468
337 1 586 587 588
338 1 118 119 120
339 1 667 668 669
340 1 850 851 852
