LAMMPS (29 Aug 2024 - Update 1)
  using 1 OpenMP thread(s) per MPI task


    units           real
    atom_style      full
    boundary        p p p
    bond_style      harmonic
    angle_style     harmonic

    pair_style      lj/cut/coul/long 12.00
    pair_modify     mix arithmetic shift yes
    kspace_style    pppm 1.0e-4
    special_bonds   lj/coul 0.0 0.0 0.0

    if $(is_file(system.cpt)) then "read_restart system.cpt" else "read_data ../share/equil_nvt.data"
    if 0 then "read_restart system.cpt" else "read_data ../share/equil_nvt.data"
read_data ../share/equil_nvt.data
Reading data file ...
  orthogonal box = (0 0 0) to (30 30 30)
  1 by 2 by 2 MPI processor grid
  reading atoms ...
  1050 atoms
  reading velocities ...
  1050 velocities
  scanning bonds ...
  2 = max bonds/atom
  scanning angles ...
  1 = max angles/atom
  orthogonal box = (0 0 0) to (30 30 30)
  1 by 2 by 2 MPI processor grid
  reading bonds ...
  700 bonds
  reading angles ...
  350 angles
Finding 1-2 1-3 1-4 neighbors ...
  special bond factors lj:    0        0        0       
  special bond factors coul:  0        0        0       
     2 = max # of 1-2 neighbors
     1 = max # of 1-3 neighbors
     1 = max # of 1-4 neighbors
     2 = max # of special neighbors
  special bonds CPU = 0.000 seconds
  read_data CPU = 0.011 seconds

    include         ../share/potential.inp



pair_coeff      1  1    0.194746   3.7500   # CH3 - CH3  in ACN
pair_coeff      2  2    0.119232   3.5500   # C   - C    in ACN
pair_coeff      3  3    0.119232   2.9500   # N   - N    in ACN

pair_coeff      4  4    0.053655   2.800  # C-C in CO2
pair_coeff      5  5    0.156989   3.050  # O-O in CO2


bond_coeff      1     1000.00       1.5400  # CH3#C in ACN
bond_coeff      2     1000.00       1.1570  # C#N   in ACN
bond_coeff      3     1000.00       1.1600  # C#O   in CO2

angle_coeff     1     250.00       180.0   # CH3-C-N in ACN
angle_coeff     2     250.00       180.0   # O-C-O   in CO2

# masses


mass  1  15.035    #CH3 in ACN
mass  2  12.0107   #C   in ACN
mass  3  14.0067   #N   in ACN
mass  4  12.0107   #C   in CO2
mass  5  15.9994   #O   in CO2



    timestep        0.2500 ## fs

    group           acn     type 1 2 3
960 atoms in group acn
    group           co2     type 4 5
90 atoms in group co2
    group           mobile  type 1 2 3 4 5
1050 atoms in group mobile

    variable        nco2   equal count(co2)/3.0
    variable        nacn   equal count(acn)/3.0
    variable        nmob   equal count(mobile)/3.0

    compute         mdtemp mobile temp
    compute_modify  mdtemp dynamic/dof yes

    molecule        mols    ../share/acnmol.txt
Read molecule template mols:
# C2H3N (UA) molecule file. TraPPE model.
  1 molecules
  0 fragments
  3 atoms with max type 3
  2 bonds with max type 2
  1 angles with max type 1
  0 dihedrals with max type 0
  0 impropers with max type 0

    fix             ensemble all rigid/nvt/small molecule temp 300.0 300.0 $(dt*100)  mol mols
    fix             ensemble all rigid/nvt/small molecule temp 300.0 300.0 25  mol mols
  create bodies CPU = 0.000 seconds
  350 rigid bodies with 1050 atoms
  1.54 = max distance from body owner to body atom
    fix_modify      ensemble dynamic/dof yes


    variable        co2tfac equal 5.0/3.0

    #fix             co2gcmc co2 gcmc ${MDsteps} ${MCsteps} 0 0 ${seed1} ${temp} ${co2mu} 0.1     #                mol mols molindex 2 group mobile tfac_insert ${co2tfac} rigid ensemble full_energy

    fix             acngcmc acn gcmc ${MDsteps} ${MCsteps} 0 0 ${seed2} ${temp} ${acnmu} 0.1                     mol mols group mobile tfac_insert ${co2tfac} rigid ensemble full_energy
    fix             acngcmc acn gcmc 400 ${MCsteps} 0 0 ${seed2} ${temp} ${acnmu} 0.1                     mol mols group mobile tfac_insert ${co2tfac} rigid ensemble full_energy
    fix             acngcmc acn gcmc 400 100 0 0 ${seed2} ${temp} ${acnmu} 0.1                     mol mols group mobile tfac_insert ${co2tfac} rigid ensemble full_energy
    fix             acngcmc acn gcmc 400 100 0 0 10116 ${temp} ${acnmu} 0.1                     mol mols group mobile tfac_insert ${co2tfac} rigid ensemble full_energy
    fix             acngcmc acn gcmc 400 100 0 0 10116 300.0 ${acnmu} 0.1                     mol mols group mobile tfac_insert ${co2tfac} rigid ensemble full_energy
    fix             acngcmc acn gcmc 400 100 0 0 10116 300.0 -10.70 0.1                     mol mols group mobile tfac_insert ${co2tfac} rigid ensemble full_energy
    fix             acngcmc acn gcmc 400 100 0 0 10116 300.0 -10.70 0.1                     mol mols group mobile tfac_insert 1.66666666666667 rigid ensemble full_energy



    thermo          1000
    thermo_style    custom step temp press etotal ke pe v_nacn v_nco2
    compute_modify  thermo_temp dynamic/dof yes

    variable        mtemp  equal temp
    variable        mpress equal press
    variable        mke    equal ke
    variable        mpe    equal pe
    variable        metot  equal etotal

    fix             nvtstat all ave/time 250 20  10000 v_mtemp v_mpress v_mke v_mpe v_metot append thermal_statistics.dat

    #variable        ciatt equal f_co2gcmc[3]
    #variable        ciacc equal f_co2gcmc[4]
    #variable        cdatt equal f_co2gcmc[5]
    #variable        cdacc equal f_co2gcmc[6]

    #fix             cgcmcstat all ave/time ${MDsteps} 1 ${MDsteps} v_ciatt v_ciacc v_cdatt v_cdacc v_nco2 v_nmob append co2_stats.dat

    variable        wiatt equal f_acngcmc[3]
    variable        wiacc equal f_acngcmc[4]
    variable        wdatt equal f_acngcmc[5]
    variable        wdacc equal f_acngcmc[6]

    fix             agcmcstat all ave/time ${MDsteps} 1 ${MDsteps} v_wiatt v_wiacc v_wdatt v_wdacc v_nacn v_nmob append acn_stats.dat
    fix             agcmcstat all ave/time 400 1 ${MDsteps} v_wiatt v_wiacc v_wdatt v_wdacc v_nacn v_nmob append acn_stats.dat
    fix             agcmcstat all ave/time 400 1 400 v_wiatt v_wiacc v_wdatt v_wdacc v_nacn v_nmob append acn_stats.dat

    dump            mdump all custom ${MDsteps} traj.lammpstrj id mol type xu yu zu #
    dump            mdump all custom 400 traj.lammpstrj id mol type xu yu zu 
    dump_modify     mdump flush yes

    restart         ${MDsteps} system.cpt system.cpt
    restart         400 system.cpt system.cpt

    run             ${runsteps} upto
    run             1000000 upto

CITE-CITE-CITE-CITE-CITE-CITE-CITE-CITE-CITE-CITE-CITE-CITE-CITE

Your simulation uses code contributions which should be cited:

- Type Label Framework: https://doi.org/10.1021/acs.jpcb.3c08419

@Article{Gissinger24,
 author = {Jacob R. Gissinger, Ilia Nikiforov, Yaser Afshar, Brendon Waters, Moon-ki Choi, Daniel S. Karls, Alexander Stukowski, Wonpil Im, Hendrik Heinz, Axel Kohlmeyer, and Ellad B. Tadmor},
 title = {Type Label Framework for Bonded Force Fields in LAMMPS},
 journal = {J. Phys. Chem. B},
 year =    2024,
 volume =  128,
 number =  13,
 pages =   {3282–-3297}
}

CITE-CITE-CITE-CITE-CITE-CITE-CITE-CITE-CITE-CITE-CITE-CITE-CITE

PPPM initialization ...
  using 12-bit tables for long-range coulomb (src/kspace.cpp:342)
  G vector (1/distance) = 0.19302139
  grid = 9 9 9
  stencil order = 5
  estimated absolute RMS force accuracy = 0.024107695
  estimated relative force accuracy = 7.2599609e-05
  using double precision FFTW3
  3d grid and FFT values/proc = 1400 243
Generated 10 of 10 mixed pair_coeff terms from arithmetic mixing rule
0 atoms in group FixGCMC:gcmc_exclusion_group:acngcmc
0 atoms in group FixGCMC:rotation_gas_atoms:acngcmc
WARNING: Neighbor exclusions used with KSpace solver may give inconsistent Coulombic energies (src/neighbor.cpp:658)
Neighbor list info ...
  update: every = 1 steps, delay = 0 steps, check = yes
  max neighbors/atom: 2000, page size: 100000
  master list distance cutoff = 14
  ghost atom cutoff = 14
  binsize = 7, bins = 5 5 5
  1 neighbor lists, perpetual/occasional/extra = 1 0 0
  (1) pair lj/cut/coul/long, perpetual
      attributes: half, newton on
      pair build: half/bin/newton
      stencil: half/bin/3d
      bin: standard
Per MPI rank memory allocation (min/avg/max) = 13.66 | 13.67 | 13.67 Mbytes
   Step          Temp          Press          TotEng         KinEng         PotEng         v_nacn         v_nco2    
         0   283.60361      2013.9599     -2076.0803      492.28625     -2568.3665      320            30           
      1000   306.46346      1856.7237     -2060.4788      531.96695     -2592.4458      320            30           
      2000   301.366        2216.9319     -2028.5817      523.11865     -2551.7003      320            30           
      3000   303.08282      1944.6316     -2061.3642      526.09874     -2587.4629      320            30           
      4000   307.99183      2353.6297     -2039.4122      534.61994     -2574.0322      320            30           
      5000   321.19527      2134.3159     -2028.2281      557.5388      -2585.7669      320            30           
      6000   301.85192      1926.1401     -2039.4234      523.96212     -2563.3855      320            30           
      7000   310.73327      2546.1059     -2021.4206      539.37859     -2560.7991      320            30           
      8000   304.65667      1983.2081     -2056.3276      528.83068     -2585.1583      320            30           
      9000   284.29662      1621.1201     -2090.5561      493.4892      -2584.0453      320            30           
     10000   300.66581      1919.7456     -2075.4752      521.90324     -2597.3784      320            30           
     11000   310.37858      1971.0766     -2026.7919      538.76292     -2565.5548      320            30           
     12000   310.58952      1743.9395     -2042.0637      539.12906     -2581.1927      320            30           
     13000   300.83075      1929.9704     -2080.6625      522.18955     -2602.852       320            30           
     14000   270.5562       1724.3768     -2115.4392      469.63823     -2585.0774      320            30           
     15000   305.65362      1629.4543     -2071.2779      530.56122     -2601.8391      320            30           
     16000   295.20213      2170.5403     -2060.7638      512.41926     -2573.1831      320            30           
     17000   311.39349      1912.0128     -2047.4653      540.52462     -2587.9899      320            30           
     18000   278.97823      1932.0394     -2106.3824      484.2574      -2590.6398      320            30           
     19000   295.03663      1615.1085     -2111.335       512.13197     -2623.467       320            30           
     20000   303.04326      2070.1926     -2079.6225      526.03008     -2605.6526      320            30           
     21000   297.99311      1873.5628     -2072.7336      517.26391     -2589.9975      320            30           
     22000   277.61958      1313.5548     -2131.5644      481.89903     -2613.4634      320            30           
     23000   307.92489      2290.9494     -2050.6942      534.50374     -2585.198       320            30           
     24000   297.37227      2217.9241     -2050.5071      516.18624     -2566.6934      320            30           
     25000   289.61799      1639.6921     -2092.3863      502.72616     -2595.1124      320            30           
     26000   306.07094      1801.9702     -2062.5459      531.28561     -2593.8315      320            30           
     27000   301.89747      1993.608      -2063.0194      524.04119     -2587.0606      320            30           
     28000   307.03147      1651.3138     -2057.2907      532.95292     -2590.2436      320            30           
     29000   286.28793      1776.4501     -2065.4912      496.94575     -2562.4369      320            30           
     30000   301.85364      2563.2637     -2018.0566      523.96511     -2542.0217      320            30           
     31000   306.46076      1885.7976     -2026.5324      531.96227     -2558.4946      320            30           
     32000   289.47489      1927.5481     -2062.1551      502.47776     -2564.6329      320            30           
     33000   302.88886      1988.2385     -2023.5399      525.76207     -2549.302       320            30           
     34000   285.05908      2051.0344     -2084.5534      494.8127      -2579.3661      320            30           
     35000   299.43004      1855.5537     -2075.3055      519.75816     -2595.0637      320            30           
     36000   290.00836      1909.9612     -2061.1863      503.40378     -2564.5901      320            30           
     37000   305.53164      1614.202      -2063.7092      530.34947     -2594.0587      320            30           
     38000   309.60556      2359.5414     -2010.7158      537.42108     -2548.1369      320            30           
     39000   304.49542      1862.2023     -2048.2946      528.55079     -2576.8454      320            30           
     40000   291.11923      1718.4963     -2092.2363      505.33205     -2597.5683      320            30           
     41000   314.4235       2244.276      -2002.5935      545.78418     -2548.3777      320            30           
     42000   294.76492      2213.4821     -2035.0579      511.66034     -2546.7183      320            30           
     43000   304.15028      1560.3796     -2046.0295      527.95168     -2573.9811      320            30           
     44000   312.97564      1552.4537     -2060.1884      543.27096     -2603.4594      320            30           
     45000   301.1012       1710.8153     -2072.3964      522.65901     -2595.0554      320            30           
     46000   316.21155      1682.1803     -2034.5215      548.88792     -2583.4094      320            30           
     47000   299.88655      1724.227      -2078.9298      520.55059     -2599.4804      320            30           
     48000   291.62589      1919.6119     -2037.5952      506.21153     -2543.8067      320            30           
     49000   299.05385      1855.4314     -2055.8953      519.10516     -2575.0005      320            30           
     50000   314.8411       2140.4316     -2007.5899      546.50906     -2554.099       320            30           
     51000   311.4212       1863.507      -2031.1434      540.57272     -2571.7161      320            30           
     52000   302.68948      1718.1387     -2070.3457      525.41598     -2595.7617      320            30           
     53000   277.56262      1365.4256     -2128.5579      481.80014     -2610.358       320            30           
     54000   286.46061      1754.9092     -2090.596       497.2455      -2587.8414      320            30           
     55000   295.98594      2063.1024     -2059.3116      513.77982     -2573.0914      320            30           
     56000   311.72659      2075.0154     -2041.0857      541.10282     -2582.1885      320            30           
     57000   302.13541      1984.6895     -2051.7358      524.45421     -2576.19        320            30           
     58000   295.72963      1812.0816     -2077.0472      513.3349      -2590.3821      320            30           
     59000   296.81916      2002.2366     -2063.8354      515.22613     -2579.0616      320            30           
     60000   286.6352       2473.9798     -2049.2477      497.54856     -2546.7962      320            30           
     61000   294.87447      2657.8462     -2020.5038      511.8505      -2532.3543      320            30           
     62000   285.77553      1802.23       -2092.9577      496.05632     -2589.014       320            30           
     63000   281.7833       2565.2461     -2075.6542      489.12651     -2564.7807      320            30           
     64000   301.42106      2013.6585     -2062.0176      523.21423     -2585.2318      320            30           
     65000   303.25461      1854.7688     -2069.4075      526.39696     -2595.8045      320            30           
     66000   294.42009      1990.1864     -2086.9631      511.06177     -2598.0248      320            30           
     67000   305.07323      2095.8732     -2060.2911      529.55376     -2589.8448      320            30           
     68000   305.04139      1384.0492     -2084.3575      529.49849     -2613.856       320            30           
     69000   289.22805      1922.8444     -2092.723       502.0493      -2594.7723      320            30           
     70000   321.63279      2031.1008     -2020.0446      558.29825     -2578.3429      320            30           
     71000   286.51257      2033.1694     -2081.1914      497.3357      -2578.5271      320            30           
     72000   290.35454      2077.3882     -2081.7961      504.00469     -2585.8008      320            30           
     73000   298.85238      2091.1708     -2063.3764      518.75545     -2582.1319      320            30           
     74000   315.96737      1922.2032     -2050.3627      548.46408     -2598.8268      320            30           
     75000   305.21443      2209.3672     -2033.7897      529.79886     -2563.5885      320            30           
     76000   301.03341      2267.6443     -2024.5005      522.54133     -2547.0418      320            30           
     77000   322.29715      1918.9734     -2008.2507      559.45146     -2567.7022      320            30           
     78000   308.94167      1985.5853     -2049.4127      536.26868     -2585.6814      320            30           
     79000   297.40074      1960.2708     -2059.2301      516.23565     -2575.4657      320            30           
     80000   297.50261      1551.4039     -2091.3046      516.41248     -2607.7171      320            30           
     81000   302.26871      2047.1369     -2061.3563      524.68559     -2586.0418      320            30           
     82000   311.3431       1789.9323     -2067.5833      540.43715     -2608.0205      320            30           
     83000   309.21433      2049.7368     -2055.299       536.74197     -2592.041       320            30           
     84000   297.7985       1847.8403     -2082.9843      516.9261      -2599.9104      320            30           
     85000   299.32035      1972.6088     -2079.7183      519.56776     -2599.286       320            30           
     86000   306.52814      1427.6294     -2075.8333      532.07922     -2607.9125      320            30           
     87000   317.8082       1997.3        -2025.4117      551.65944     -2577.0711      320            30           
     88000   298.24511      1940.6587     -2064.3257      517.70133     -2582.027       320            30           
     89000   305.7268       1956.7799     -2054.1799      530.68823     -2584.8681      320            30           
     90000   301.71073      2328.1504     -2024.4864      523.71704     -2548.2035      320            30           
     91000   303.24688      1405.0284     -2082.9645      526.38354     -2609.348       320            30           
     92000   302.32278      1922.7175     -2060.9449      524.77945     -2585.7244      320            30           
     93000   308.36727      1834.4148     -2060.1094      535.27163     -2595.381       320            30           
     94000   289.12445      2640.4822     -2046.7752      501.86946     -2548.6447      320            30           
     95000   299.57443      1702.6753     -2065.9034      520.0088      -2585.9122      320            30           
     96000   285.71874      1643.3986     -2086.191       495.95775     -2582.1487      320            30           
     97000   294.77034      2212.5925     -2040.4538      511.66975     -2552.1236      320            30           
     98000   304.92089      1362.644      -2087.6726      529.28932     -2616.9619      320            30           
     99000   291.72014      1383.0587     -2087.5407      506.37512     -2593.9158      320            30           
    100000   301.61387      1941.2909     -2092.1381      523.54892     -2615.687       320            30           
    101000   301.50974      1808.1667     -2073.7492      523.36815     -2597.1173      320            30           
    102000   305.38826      2123.4955     -2031.9093      530.10059     -2562.0099      320            30           
    103000   291.446        1922.4849     -2079.9388      505.89927     -2585.8381      320            30           
    104000   306.87141      1537.2665     -2052.3707      531.15054     -2583.5212      319            30           
    105000   311.46014      1847.546      -2052.3935      539.09297     -2591.4865      319            30           
    106000   324.11126      2507.3866     -2021.07        560.99026     -2582.0603      319            30           
    107000   292.90001      2062.4279     -2062.6109      506.96805     -2569.5789      319            30           
    108000   297.90093      1587.0172     -2065.6273      515.62392     -2581.2512      319            30           
    109000   300.21299      2071.6454     -2026.7724      519.62577     -2546.3982      319            30           
    110000   293.08307      1671.7924     -2068.722       507.2849      -2576.0069      319            30           
    111000   300.90948      1633.1431     -2055.7748      520.83129     -2576.606       319            30           
    112000   304.04232      1965.9341     -2017.3454      526.25379     -2543.5992      319            30           
    113000   288.83809      2165.3936     -2053.1935      499.93744     -2553.1309      319            30           
    114000   302.61862      1908.7934     -2040.7277      523.78956     -2564.5172      319            30           
    115000   290.30889      2133.7177     -2026.1267      502.48318     -2528.6099      319            30           
    116000   311.31877      1645.5545     -2035.6508      538.84828     -2574.4991      319            30           
    117000   289.65112      1374.1639     -2065.5656      501.34468     -2566.9103      319            30           
    118000   303.87715      1790.7144     -2013.8671      525.96791     -2539.835       319            30           
    119000   299.39846      1480.9101     -2065.6446      518.21593     -2583.8605      319            30           
    120000   304.19502      1589.4844     -2033.6491      526.51809     -2560.1672      319            30           
    121000   308.19576      2119.2222     -2019.8663      533.44279     -2553.3091      319            30           
    122000   285.1929       1764.8067     -2052.262       493.62813     -2545.8902      319            30           
    123000   288.64389      1961.046      -2060.4852      499.60131     -2560.0865      319            30           
    124000   311.4734       1875.5533     -2038.6117      539.11592     -2577.7276      319            30           
    125000   311.35741      1628.4641     -2036.0888      538.91517     -2575.004       319            30           
    126000   304.09124      1613.9504     -2077.3252      526.33847     -2603.6636      319            30           
    127000   306.16458      1775.4742     -2049.2187      529.92712     -2579.1458      319            30           
    128000   301.8715       1725.9521     -2059.9635      522.49641     -2582.4599      319            30           
    129000   307.10631      2098.4173     -2028.1878      531.55713     -2559.7449      319            30           
    130000   311.91537      1828.2573     -2009.9568      539.88092     -2549.8377      319            30           
    131000   284.97364      1831.4617     -2064.3616      493.24864     -2557.6102      319            30           
    132000   300.89247      1399.6187     -2038.9445      520.80185     -2559.7464      319            30           
    133000   300.64551      2305.7982     -2019.6212      520.3744      -2539.9956      319            30           
    134000   313.00249      2227.5425     -2006.0533      541.76257     -2547.8158      319            30           
    135000   287.80287      1760.6828     -2078.254       498.14561     -2576.3996      319            30           
    136000   309.43141      1819.2093     -2018.6802      535.58152     -2554.2617      319            30           
    137000   285.52324      1603.9523     -2100.9032      494.19991     -2595.1031      319            30           
    138000   300.41457      1847.3753     -2061.7796      519.97466     -2581.7543      319            30           
    139000   285.40862      1795.197      -2093.0507      494.00152     -2587.0522      319            30           
    140000   296.01007      2077.5051     -2038.9567      512.35111     -2551.3078      319            30           
    141000   310.677        2222.159      -2027.6343      537.73747     -2565.3717      319            30           
    142000   297.53744      2164.928      -2023.9211      514.99477     -2538.9158      319            30           
    143000   292.95005      1866.2377     -2052.8024      507.05465     -2559.857       319            30           
    144000   303.21061      1720.7342     -2077.8475      524.81422     -2602.6617      319            30           
    145000   273.55244      1766.4233     -2087.0347      473.48016     -2560.5149      319            30           
    146000   283.29557      1207.3225     -2114.1545      490.34414     -2604.4986      319            30           
    147000   330.18924      2097.4721     -2001.8561      571.51037     -2573.3664      319            30           
    148000   313.40345      1664.6154     -2027.8208      542.45656     -2570.2774      319            30           
    149000   312.23286      1883.116      -2025.8725      540.43044     -2566.3029      319            30           
    150000   289.06433      1961.143      -2072.31        500.32903     -2572.6391      319            30           
    151000   305.85252      1854.2192     -2039.156       529.38699     -2568.543       319            30           
    152000   301.33746      1699.1325     -2058.7803      521.57206     -2580.3524      319            30           
    153000   288.37949      1673.131      -2093.1687      499.14367     -2592.3124      319            30           
    154000   281.74928      1976.4543     -2075.5412      487.66772     -2563.2089      319            30           
    155000   310.35802      2072.7777     -2014.1864      537.18537     -2551.3718      319            30           
    156000   283.67978      1694.7166     -2070.9563      491.00915     -2561.9654      319            30           
    157000   293.69504      1820.4596     -2063.6233      508.34413     -2571.9674      319            30           
    158000   316.95305      1981.0269     -2018.3858      548.60042     -2566.9862      319            30           
    159000   303.8723       2300.6442     -2008.8562      525.95952     -2534.8157      319            30           
    160000   325.16586      2317.6811     -1982.3396      562.81562     -2545.1552      319            30           
    161000   291.75727      1702.9503     -2062.7545      504.99012     -2567.7446      319            30           
    162000   306.10111      2334.9256     -2015.023       529.81727     -2544.8403      319            30           
    163000   275.7039       1967.3956     -2069.7339      477.20404     -2546.938       319            30           
    164000   329.12191      1653.7519     -1993.7724      569.66297     -2563.4353      319            30           
    165000   315.4869       2003.9902     -2010.9667      546.06271     -2557.0294      319            30           
    166000   288.82458      2091.8086     -2041.5318      499.91405     -2541.4459      319            30           
    167000   307.40129      1965.5627     -2036.1815      532.06769     -2568.2492      319            30           
    168000   302.64818      2037.1467     -2020.6426      523.84073     -2544.4833      319            30           
    169000   311.18346      2145.0621     -1998.5784      538.61408     -2537.1925      319            30           
    170000   298.97653      1734.472      -2032.7012      517.48563     -2550.1869      319            30           
    171000   297.7104       1833.7643     -2037.8235      515.29414     -2553.1177      319            30           
    172000   303.16975      1793.7409     -2037.9519      524.74349     -2562.6954      319            30           
    173000   310.43808      2087.0259     -2015.4605      537.32393     -2552.7844      319            30           
    174000   307.9549       1491.5706     -2057.9715      533.0259      -2590.9974      319            30           
    175000   285.54626      2014.2046     -2066.0813      494.23974     -2560.321       319            30           
    176000   301.41614      1971.303      -2033.445       521.70826     -2555.1532      319            30           
    177000   310.75098      1949.5062     -2015.6127      537.86552     -2553.4782      319            30           
    178000   307.72728      1542.7299     -2045.2034      532.63193     -2577.8353      319            30           
    179000   323.01711      1750.8473     -2026.0866      559.09644     -2585.183       319            30           
    180000   296.97521      1672.0385     -2049.6708      514.02163     -2563.6924      319            30           
    181000   294.14918      1727.6431     -2053.4295      509.13018     -2562.5596      319            30           
    182000   289.73935      1644.2903     -2065.4275      501.49739     -2566.9249      319            30           
    183000   306.83123      1541.9915     -2041.7417      531.081       -2572.8227      319            30           
    184000   298.87533      2043.3643     -2038.2986      517.31046     -2555.6091      319            30           
    185000   275.15989      1639.8902     -2091.6769      476.26243     -2567.9394      319            30           
    186000   293.71184      2172.1753     -2030.8885      508.37321     -2539.2617      319            30           
    187000   323.81598      2121.632      -1996.6807      560.47917     -2557.1599      319            30           
    188000   302.43144      2493.9197     -2027.4747      523.46559     -2550.9403      319            30           
    189000   313.99553      2164.0057     -2009.4515      543.48137     -2552.9328      319            30           
    190000   311.71912      1867.5789     -2023.613       539.54123     -2563.1543      319            30           
    191000   287.90977      1972.9403     -2050.8042      498.33065     -2549.1349      319            30           
    192000   301.26907      2151.4501     -2027.0347      521.45369     -2548.4884      319            30           
    193000   317.82212      2204.2638     -2009.7349      550.10464     -2559.8395      319            30           
    194000   317.38378      2053.9274     -1975.2422      549.34594     -2524.5881      319            30           
    195000   314.90993      1411.4612     -2017.4161      545.06406     -2562.4801      319            30           
    196000   304.57877      2217.7816     -2022.229       527.18231     -2549.4113      319            30           
    197000   283.62525      1496.319      -2093.4323      490.91476     -2584.347       319            30           
    198000   299.51246      1770.6039     -2033.5132      518.41325     -2551.9264      319            30           
    199000   293.16666      1679.1486     -2066.9295      507.42958     -2574.3591      319            30           
    200000   302.77573      2147.3377     -2065.7519      524.06151     -2589.8134      319            30           
    201000   282.96288      1769.9231     -2090.4101      489.7683      -2580.1783      319            30           
    202000   301.24998      2200.0746     -2025.2342      521.42064     -2546.6548      319            30           
    203000   298.20984      2126.7153     -2041.3054      516.15859     -2557.464       319            30           
    204000   305.16578      2497.6227     -2042.5322      528.19834     -2570.7306      319            30           
    205000   295.90765      1897.3827     -2062.6427      512.17384     -2574.8166      319            30           
    206000   301.59574      1792.9687     -2077.5879      522.01911     -2599.607       319            30           
    207000   289.55599      1677.4053     -2090.2247      501.18003     -2591.4047      319            30           
    208000   301.233        1822.5115     -2053.9416      521.39126     -2575.3328      319            30           
    209000   302.41957      1877.5852     -2050.1752      523.44504     -2573.6203      319            30           
    210000   306.84488      1538.5297     -2051.2522      531.10463     -2582.3568      319            30           
    211000   304.22742      1869.6392     -2037.3586      526.57416     -2563.9328      319            30           
    212000   297.43254      1880.6206     -2056.2338      514.8132      -2571.047       319            30           
    213000   291.40879      1708.4445     -2078.262       504.38695     -2582.6489      319            30           
    214000   308.88763      1842.6277     -2039.602       534.64033     -2574.2423      319            30           
    215000   308.96947      1675.5917     -2066.7628      534.78197     -2601.5448      319            30           
    216000   312.69662      2262.569      -2019.5562      541.23315     -2560.7893      319            30           
    217000   291.71071      2284.1932     -2072.1522      504.90954     -2577.0618      319            30           
    218000   312.50304      1888.8019     -2016.9804      540.89809     -2557.8785      319            30           
    219000   310.50797      1664.7896     -2042.2393      537.4449      -2579.6842      319            30           
    220000   297.75434      2004.7447     -2031.636       515.3702      -2547.0062      319            30           
    221000   280.11908      1855.3959     -2082.8554      484.84608     -2567.7015      319            30           
    222000   302.83917      1816.9738     -2054.7403      524.1713      -2578.9116      319            30           
    223000   289.25378      1980.0393     -2072.2781      500.65694     -2572.9351      319            30           
    224000   299.54738      2268.3537     -2034.9173      518.47369     -2553.391       319            30           
    225000   305.79347      2133.8984     -2002.9807      529.28479     -2532.2655      319            30           
    226000   307.22189      1724.5541     -2031.9685      530.23088     -2562.1994      318            30           
    227000   293.89523      1972.0297     -2040.3147      507.23055     -2547.5452      318            30           
    228000   308.75815      2224.4513     -2028.4919      532.8823      -2561.3742      318            30           
    229000   307.28565      1984.3038     -2011.3131      530.34093     -2541.654       318            30           
    230000   288.75516      2218.2436     -2027.917       498.35936     -2526.2764      318            30           
    231000   308.73847      2028.4828     -2016.7933      532.84833     -2549.6416      318            30           
    232000   313.57975      1833.6242     -2012.2581      541.20384     -2553.4619      318            30           
    233000   319.8227       1439.9216     -2027.9956      551.97849     -2579.9741      318            30           
    234000   298.14926      1483.106      -2071.3696      514.57253     -2585.9421      318            30           
    235000   294.06254      1562.8186     -2069.7055      507.5193      -2577.2248      318            30           
    236000   297.18293      1899.0285     -2045.8568      512.90476     -2558.7615      318            30           
    237000   273.62243      1558.4199     -2091.2638      472.24195     -2563.5057      318            30           
    238000   307.37008      2134.8363     -2013.6333      530.48664     -2544.1199      318            30           
    239000   310.31299      1566.3608     -2041.0642      535.56578     -2576.6299      318            30           
    240000   309.78129      1522.77       -2029.328       534.64812     -2563.9761      318            30           
    241000   289.38982      1474.5238     -2068.1297      499.45471     -2567.5844      318            30           
    242000   283.34886      1580.8287     -2099.05        489.02869     -2588.0787      318            30           
    243000   294.17839      1827.2793     -2008.9962      507.71925     -2516.7154      318            30           
    244000   284.37849      1766.4503     -2074.6834      490.8057      -2565.4891      318            30           
    245000   288.80377      1467.2805     -2056.7528      497.00847     -2553.7613      317            30           
    246000   288.26665      1604.2539     -2072.7675      496.08414     -2568.8517      317            30           
    247000   289.56295      1684.4303     -2055.0291      498.31496     -2553.3441      317            30           
    248000   300.3815       1753.7475     -2024.8337      515.44053     -2540.2742      316            30           
    249000   299.2182       1861.1113     -2012.1439      513.44436     -2525.5883      316            30           
    250000   273.54809      1876.9743     -2065.4697      469.39567     -2534.8654      316            30           
    251000   306.51191      1276.0898     -2007.5306      524.43727     -2531.9679      315            30           
    252000   294.32104      1290.8791     -2037.1009      503.57888     -2540.6798      315            30           
    253000   286.02399      1285.054      -2048.4596      489.38275     -2537.8423      315            30           
    254000   315.90426      1395.387      -1992.125       540.50745     -2532.6325      315            30           
    255000   313.63755      1831.3267     -1957.7505      536.62914     -2494.3796      315            30           
    256000   285.03312      1442.6529     -2046.6603      487.68738     -2534.3477      315            30           
    257000   291.76809      1678.4077     -1999.7975      499.21082     -2499.0083      315            30           
    258000   303.85435      1502.6943     -2007.5446      519.89022     -2527.4348      315            30           
    259000   307.50158      2213.8816     -1946.5744      526.13058     -2472.705       315            30           
    260000   312.97949      1644.39       -1963.8066      535.50321     -2499.3098      315            30           
    261000   284.96628      1343.4582     -2041.8404      487.57302     -2529.4134      315            30           
    262000   291.57841      1730.9201     -1996.7426      498.88628     -2495.6288      315            30           
    263000   302.77821      1256.1281     -2018.0685      518.04896     -2536.1175      315            30           
    264000   300.72904      1442.159      -2024.4276      514.54287     -2538.9704      315            30           
    265000   297.70327      1324.8157     -2031.7982      509.36581     -2541.164       315            30           
    266000   291.9095       1414.9005     -2012.8829      499.45276     -2512.3356      315            30           
    267000   305.28641      1126.9822     -2027.3875      522.34045     -2549.728       315            30           
    268000   300.93622      1801.7803     -2011.4737      514.89735     -2526.371       315            30           
    269000   295.63659      1339.7142     -2031.172       505.82976     -2537.0018      315            30           
    270000   307.48891      1529.826      -1997.2634      526.10891     -2523.3723      315            30           
    271000   300.02678      1555.7282     -2019.8752      513.3413      -2533.2165      315            30           
    272000   284.85772      1514.618      -2030.0022      487.38728     -2517.3895      315            30           
    273000   298.95533      1291.1151     -2028.9262      511.50808     -2540.4343      315            30           
    274000   304.21113      2211.3328     -1988.9456      520.50067     -2509.4463      315            30           
    275000   305.36156      1774.6657     -1997.9409      522.46904     -2520.4099      315            30           
    276000   286.57309      1933.6158     -2003.5447      490.32225     -2493.867       315            30           
    277000   301.49088      1333.0688     -2010.0942      515.84636     -2525.9405      315            30           
    278000   289.25747      1887.9841     -2019.6851      494.91518     -2514.6003      315            30           
    279000   300.50382      1812.5793     -2000.9573      514.15751     -2515.1148      315            30           
    280000   312.41301      1367.2688     -2001.9915      534.53396     -2536.5255      315            30           
    281000   308.07576      1521.9988     -2001.5259      527.11299     -2528.6389      315            30           
    282000   293.6857       1768.3522     -2010.3043      502.49182     -2512.7961      315            30           
    283000   301.77029      1870.62       -1992.7778      516.32443     -2509.1022      315            30           
    284000   298.68658      1800.8574     -2001.1541      511.04826     -2512.2023      315            30           
    285000   285.74121      1240.6789     -2052.9964      488.89891     -2541.8953      315            30           
    286000   300.64668      1402.8455     -2025.3954      514.40196     -2539.7973      315            30           
    287000   306.34058      1619.5845     -2008.0798      524.14413     -2532.2239      315            30           
    288000   285.4666       1167.7542     -2031.0447      488.42907     -2519.4738      315            30           
    289000   305.49575      1524.5453     -1997.6396      522.69863     -2520.3382      315            30           
    290000   291.95101      1404.55       -2016.4322      499.52378     -2515.956       315            30           
    291000   298.26059      1771.5538     -2007.1043      510.31938     -2517.4236      315            30           
    292000   311.32737      1329.2045     -1997.3442      532.67644     -2530.0206      315            30           
    293000   277.78556      1641.3364     -2053.497       475.28691     -2528.7839      315            30           
    294000   311.14338      1666.5382     -2004.9391      532.36165     -2537.3007      315            30           
    295000   302.34797      1529.9647     -2018.9645      517.31282     -2536.2773      315            30           
    296000   303.85119      1780.6861     -1975.3941      518.37528     -2493.7694      314            30           
    297000   298.16354      1486.5151     -2006.9072      508.67205     -2515.5793      314            30           
    298000   305.58874      1704.1606     -1972.2561      521.33958     -2493.5957      314            30           
    299000   307.63142      1322.6955     -1996.5929      524.82441     -2521.4173      314            30           
    300000   286.67649      1781.2109     -2017.4415      489.07495     -2506.5165      314            30           
    301000   294.66693      1902.3797     -1998.5484      502.70678     -2501.2552      314            30           
    302000   297.91452      1717.3569     -1971.7069      508.24722     -2479.9541      314            30           
    303000   291.62755      1687.6697     -1987.3826      497.52154     -2484.9042      314            30           
    304000   315.21394      1379.364      -1985.7916      537.76033     -2523.552       314            30           
    305000   288.99283      1648.1978     -2004.2404      493.02667     -2497.267       314            30           
    306000   302.1988       1557.0454     -1986.0878      515.55628     -2501.6441      314            30           
    307000   288.25555      1868.3288     -1999.5427      491.76886     -2491.3116      314            30           
    308000   284.20751      967.45474     -2038.9448      484.86284     -2523.8076      314            30           
    309000   293.22637      1442.9233     -2019.895       500.24916     -2520.1441      314            30           
    310000   283.87348      1428.3131     -2040.6409      484.29297     -2524.9338      314            30           
    311000   281.76638      1403.6972     -2062.9771      480.69822     -2543.6753      314            30           
    312000   295.03139      1992.8107     -1993.9932      503.32856     -2497.3218      314            30           
    313000   296.51457      1988.213      -1988.5324      505.85889     -2494.3913      314            30           
    314000   323.17805      1980.8177     -1952.6941      551.34723     -2504.0414      314            30           
    315000   292.33245      1727.3268     -2000.681       498.72412     -2499.4051      314            30           
    316000   298.29256      1525.3404     -1965.9854      508.89217     -2474.8776      314            30           
    317000   294.51789      1682.7798     -1982.3204      502.45251     -2484.7729      314            30           
    318000   310.7456       1713.4584     -1970.9932      530.13726     -2501.1305      314            30           
    319000   293.46138      1417.3879     -2031.2417      500.65009     -2531.8918      314            30           
    320000   299.24727      1429.6968     -2008.14        510.52092     -2518.6609      314            30           
    321000   321.00903      1798.2691     -1972.1377      547.64684     -2519.7846      314            30           
    322000   284.84224      1316.473      -2054.2406      485.94569     -2540.1863      314            30           
    323000   299.40389      1941.5342     -1984.3167      510.78812     -2495.1048      314            30           
    324000   285.57752      1946.1362     -2016.8801      487.20009     -2504.0802      314            30           
    325000   289.9543       1629.7616     -2017.5883      494.66696     -2512.2552      314            30           
    326000   307.54034      1477.0945     -1977.2745      524.66904     -2501.9435      314            30           
    327000   301.16234      1909.1091     -1999.7416      513.78805     -2513.5296      314            30           
    328000   296.84168      1391.974      -1998.3723      506.41693     -2504.7892      314            30           
    329000   293.7492       1736.0743     -1999.3206      501.14111     -2500.4617      314            30           
    330000   302.05723      1810.9722     -2003.6528      515.31475     -2518.9676      314            30           
    331000   312.71832      1470.0285     -1963.5241      533.50276     -2497.0268      314            30           
    332000   290.14607      1347.5544     -2026.6345      494.99412     -2521.6286      314            30           
    333000   306.27865      1532.0813     -1988.5099      522.51656     -2511.0265      314            30           
    334000   290.71879      1581.7585     -2007.1993      495.97118     -2503.1705      314            30           
    335000   298.36493      1809.4116     -1976.8411      509.01562     -2485.8567      314            30           
    336000   323.05425      1492.2197     -1965.6972      551.13603     -2516.8332      314            30           
    337000   277.28623      1631.6339     -2035.8897      473.05501     -2508.9447      314            30           
    338000   302.56812      1597.6842     -1990.2738      516.18634     -2506.4601      314            30           
    339000   300.97928      1843.1647     -1989.7053      513.47576     -2503.1811      314            30           
    340000   295.92598      1594.2303     -1997.0305      504.85474     -2501.8853      314            30           
    341000   306.50066      1516.4285     -2002.7515      522.89532     -2525.6469      314            30           
    342000   309.90212      2128.8233     -1949.912       528.69827     -2478.6103      314            30           
    343000   313.69877      1731.1393     -1963.472       535.17542     -2498.6475      314            30           
    344000   311.74494      1495.6596     -1992.1407      531.84216     -2523.9829      314            30           
    345000   288.66933      1821.3993     -1991.0819      492.47477     -2483.5567      314            30           
    346000   314.63789      1411.8994     -1986.7372      536.77757     -2523.5148      314            30           
    347000   309.98407      1414.9985     -1987.3627      528.83808     -2516.2007      314            30           
    348000   295.0197       1504.6958     -2018.7728      503.30862     -2522.0815      314            30           
    349000   304.86178      1590.4497     -1981.8335      520.09937     -2501.9328      314            30           
    350000   298.04128      1653.4718     -1978.7884      508.46348     -2487.2518      314            30           
    351000   309.34672      1184.4156     -2005.9005      527.75075     -2533.6512      314            30           
    352000   303.99358      1232.4094     -2004.2932      518.61819     -2522.9114      314            30           
    353000   286.99986      1614.3769     -2042.4124      489.62663     -2532.039       314            30           
    354000   294.89575      1518.4068     -1988.2526      501.6321      -2489.8847      313            30           
    355000   285.12836      1776.9687     -1987.6648      485.01729     -2472.6821      313            30           
    356000   315.17832      1081.527      -1969.3194      536.13375     -2505.4532      313            30           
    357000   297.95376      1232.1349     -2000.3774      506.83393     -2507.2113      313            30           
    358000   275.3536       1047.6329     -2038.9695      468.38995     -2507.3594      313            30           
    359000   294.04362      1454.9398     -2032.3532      500.18259     -2532.5358      313            30           
    360000   300.56342      2011.3947     -1984.7351      511.27309     -2496.0082      313            30           
    361000   308.06544      1569.7119     -1961.5461      524.03439     -2485.5805      313            30           
    362000   276.76959      1678.9004     -2029.1256      470.79861     -2499.9242      313            30           
    363000   292.48428      1484.7661     -2000.4144      497.53007     -2497.9445      313            30           
    364000   289.23584      1600.5566     -2008.3204      492.00432     -2500.3247      313            30           
    365000   309.17007      1886.9079     -1945.7659      525.91341     -2471.6793      313            30           
    366000   298.1206       1121.8373     -1993.9142      507.11773     -2501.0319      313            30           
    367000   307.40472      1189.6917     -1999.9267      522.91048     -2522.8372      313            30           
    368000   311.09878      1380.7008     -1994.9529      529.19425     -2524.1472      313            30           
    369000   287.75742      1324.2031     -2033.1208      489.48945     -2522.6103      313            30           
    370000   296.73636      1436.4481     -2011.7866      504.76306     -2516.5497      313            30           
    371000   311.51735      1341.2772     -1974.268       529.90626     -2504.1743      313            30           
    372000   302.67933      1720.4447     -1966.0938      514.87236     -2480.9661      313            30           
    373000   274.35785      1592.9604     -2029.9018      466.69613     -2496.5979      313            30           
    374000   320.2672       1003.3908     -1943.0948      544.79018     -2487.885       313            30           
    375000   293.181        1530.6505     -1993.313       498.71523     -2492.0283      313            30           
    376000   290.48905      1818.1549     -1984.9923      494.1361      -2479.1284      313            30           
    377000   306.4284       1287.0752     -1996.4587      521.2497      -2517.7084      313            30           
    378000   312.81491      1604.5877     -1935.6686      532.11348     -2467.7821      313            30           
    379000   294.64087      1319.8878     -1988.9537      501.19854     -2490.1523      313            30           
    380000   287.30909      1298.8122     -2028.576       488.72683     -2517.3028      313            30           
    381000   311.03541      1310.9006     -1963.5498      529.08645     -2492.6362      313            30           
    382000   304.25457      1344.5708     -1976.6306      517.55191     -2494.1826      313            30           
    383000   309.75661      1226.6788     -1981.8453      526.91116     -2508.7564      313            30           
    384000   301.11447      1520.3874     -1965.7832      512.21045     -2477.9937      313            30           
    385000   300.49824      1932.3425     -1958.6513      511.16222     -2469.8135      313            30           
    386000   307.97172      1274.4699     -1972.2928      523.87497     -2496.1677      313            30           
    387000   294.25441      1485.9079     -1993.3556      500.54114     -2493.8968      313            30           
    388000   299.27651      1054.6478     -2023.8873      509.084       -2532.9713      313            30           
    389000   314.85895      1476.3328     -1948.7456      535.59048     -2484.3361      313            30           
    390000   302.3238       1391.0648     -2000.8576      514.26757     -2515.1251      313            30           
    391000   282.41875      1930.6879     -1997.119       480.40812     -2477.5271      313            30           
    392000   290.94566      1528.8095     -1977.7672      494.9128      -2472.68        313            30           
    393000   320.03591      1988.722      -1923.8787      544.39674     -2468.2755      313            30           
    394000   297.55737      978.36352     -1991.8542      506.15965     -2498.0139      313            30           
    395000   302.2529       1393.1264     -1991.8892      514.14697     -2506.0362      313            30           
    396000   303.79898      1435.9257     -1981.1468      516.77693     -2497.9237      313            30           
    397000   305.96309      1469.7722     -1984.186       520.45819     -2504.6442      313            30           
    398000   292.18163      1380.013      -2003.9445      497.01525     -2500.9598      313            30           
    399000   289.4996       1412.1741     -1990.5411      492.45299     -2482.994       313            30           
    400000   306.83715      1529.6686     -1982.3824      521.94501     -2504.3274      313            30           
    401000   306.80634      1590.6517     -1985.6607      521.8926      -2507.5534      313            30           
    402000   305.80508      1631.7569     -1986.3526      520.18941     -2506.542       313            30           
    403000   309.41874      1505.3272     -1977.9971      526.33643     -2504.3335      313            30           
    404000   291.73702      1849.6581     -1972.2274      496.25895     -2468.4864      313            30           
    405000   308.28695      1677.9049     -1952.8027      524.41119     -2477.2139      313            30           
    406000   313.18808      1430.6748     -1982.8617      532.74825     -2515.6099      313            30           
    407000   292.87466      1102.204      -2023.6383      498.19412     -2521.8324      313            30           
    408000   279.6474       1509.6429     -2012.0808      475.69391     -2487.7747      313            30           
    409000   289.19605      1284.0966     -1995.6229      491.93664     -2487.5595      313            30           
    410000   288.36607      1684.9192     -1988.5943      490.5248      -2479.1191      313            30           
    411000   310.87912      1357.6057     -1955.0098      528.8206      -2483.8304      313            30           
    412000   292.86877      1598.1091     -1972.6297      498.18411     -2470.8138      313            30           
    413000   289.17111      1611.304      -1997.9696      491.8942      -2489.8638      313            30           
    414000   293.685        1474.5927     -1980.5702      499.57256     -2480.1428      313            30           
    415000   296.21738      1474.0633     -2011.6095      503.88026     -2515.4898      313            30           
    416000   302.24981      1555.1392     -1981.6542      514.14172     -2495.7959      313            30           
    417000   296.09263      1728.8754     -1971.8706      503.66806     -2475.5387      313            30           
    418000   303.22251      1843.1698     -1959.815       515.79633     -2475.6113      313            30           
    419000   311.01243      1805.3609     -1948.5704      529.04737     -2477.6178      313            30           
    420000   311.09992      1293.2229     -1968.2581      529.19619     -2497.4543      313            30           
    421000   304.64788      1591.0896     -2004.1161      518.22095     -2522.337       313            30           
    422000   291.1101       920.56339     -2009.9251      495.19252     -2505.1176      313            30           
    423000   282.69806      1336.9756     -2011.0471      480.88324     -2491.9304      313            30           
    424000   306.7005       1341.5871     -2010.0259      521.71257     -2531.7384      313            30           
    425000   313.58424      1213.5135     -1970.1639      533.42214     -2503.5861      313            30           
    426000   302.34082      1287.9378     -1974.3359      514.29653     -2488.6325      313            30           
    427000   311.18298      1567.2246     -1961.8156      529.33748     -2491.153       313            30           
    428000   300.05962      1233.9763     -2001.3871      510.41609     -2511.8032      313            30           
    429000   307.72619      1214.8563     -1967.636       523.45731     -2491.0933      313            30           
    430000   312.60642      1522.6252     -1961.8403      531.75882     -2493.5991      313            30           
    431000   310.76267      1619.2741     -1964.9849      528.62251     -2493.6074      313            30           
    432000   303.53389      1593.9851     -1965.3364      516.326       -2481.6624      313            30           
    433000   306.63211      1482.3318     -1970.1957      521.59623     -2491.792       313            30           
    434000   324.61141      1513.5116     -1957.5667      552.1799      -2509.7466      313            30           
    435000   300.94672      1401.8959     -2015.5763      511.9251      -2527.5014      313            30           
    436000   310.48258      1452.7523     -1977.9107      528.14606     -2506.0567      313            30           
    437000   307.1525       1553.8582     -1970.6702      522.48144     -2493.1516      313            30           
    438000   305.52621      1638.8655     -1999.2011      519.71503     -2518.9161      313            30           
    439000   295.01991      1404.0027     -1992.0895      501.8433      -2493.9328      313            30           
    440000   298.95305      1446.7768     -1988.6187      508.53376     -2497.1525      313            30           
    441000   331.25543      1305.7205     -1936.5944      563.4817      -2500.0761      313            30           
    442000   293.99948      1472.419      -2013.9223      500.1075      -2514.0298      313            30           
    443000   306.90083      1592.6245     -1956.9806      522.05333     -2479.034       313            30           
    444000   295.99726      1559.0643     -1974.2895      503.50582     -2477.7953      313            30           
    445000   296.38877      1537.5593     -1991.3118      504.1718      -2495.4836      313            30           
    446000   284.60427      1494.4772     -2009.4831      484.12579     -2493.6089      313            30           
    447000   307.74023      1044.6259     -1995.4469      523.48119     -2518.9281      313            30           
    448000   301.46385      1690.261      -2003.5053      512.80476     -2516.31        313            30           
    449000   289.3881       1931.8153     -1985.6011      492.26332     -2477.8644      313            30           
    450000   310.33676      1424.9064     -1988.6855      527.89802     -2516.5835      313            30           
    451000   306.04019      1156.7479     -1981.4061      520.58934     -2501.9954      313            30           
    452000   284.93658      1442.7228     -2000.2576      484.69106     -2484.9487      313            30           
    453000   289.05259      1162.0914     -2036.4868      491.69261     -2528.1794      313            30           
    454000   308.84783      1035.1343     -2006.435       525.36527     -2531.8003      313            30           
    455000   309.68649      1552.5415     -1982.4169      526.79188     -2509.2088      313            30           
    456000   290.3681       1410.6986     -1980.3849      493.93036     -2474.3153      313            30           
    457000   290.16797      1530.7225     -1982.9378      493.58992     -2476.5277      313            30           
    458000   303.11467      1523.4614     -1974.6039      515.61289     -2490.2168      313            30           
    459000   298.7787       1277.1979     -1983.2094      508.23719     -2491.4466      313            30           
    460000   292.30482      1957.896      -1980.5652      497.2248      -2477.79        313            30           
    461000   292.36624      1622.4237     -1991.0839      497.32929     -2488.4132      313            30           
    462000   307.88859      1343.6399     -1987.7771      523.73356     -2511.5107      313            30           
    463000   294.01131      1765.797      -1997.971       500.12763     -2498.0986      313            30           
    464000   291.61254      1251.0755     -2009.0229      496.0472      -2505.0701      313            30           
    465000   298.24324      1674.2163     -1984.0228      507.32635     -2491.3491      313            30           
    466000   273.82301      1521.4929     -2051.9506      465.78634     -2517.7369      313            30           
    467000   288.20429      1600.8349     -2018.5472      490.2496      -2508.7968      313            30           
    468000   297.2123       1341.5866     -2017.0196      505.57266     -2522.5923      313            30           
    469000   305.11256      1307.8157     -1985.8948      519.0114      -2504.9062      313            30           
    470000   303.66213      1424.3346     -1950.5512      516.54414     -2467.0954      313            30           
    471000   308.24967      1642.6444     -1955.1772      524.34777     -2479.525       313            30           
    472000   318.75267      1584.9226     -1947.9432      542.2139      -2490.1571      313            30           
    473000   291.13066      1418.7973     -1991.1642      495.22749     -2486.3917      313            30           
    474000   317.798        1274.6903     -1980.9588      540.58994     -2521.5487      313            30           
    475000   302.43346      1198.3793     -1979.3208      514.45411     -2493.7749      313            30           
    476000   312.76821      1563.3167     -1960.2871      532.03404     -2492.3211      313            30           
    477000   288.42379      1304.9138     -2017.2292      490.62298     -2507.8522      313            30           
    478000   292.23407      1523.2952     -1998.4343      497.10446     -2495.5388      313            30           
    479000   306.55536      1704.3635     -1949.9873      521.46568     -2471.453       313            30           
    480000   312.45622      1728.2876     -1940.5385      531.50331     -2472.0418      313            30           
    481000   289.37374      1758.8996     -1980.38        492.23889     -2472.6189      313            30           
    482000   286.62238      1333.162      -2028.8434      487.55869     -2516.4021      313            30           
    483000   310.76397      1750.674      -1953.7568      528.62471     -2482.3815      313            30           
    484000   303.71579      1619.1631     -1975.3578      516.63543     -2491.9932      313            30           
    485000   319.57377      1149.3196     -1959.2117      543.61062     -2502.8223      313            30           
    486000   307.56378      1322.2427     -1991.1126      523.18105     -2514.2936      313            30           
    487000   298.25127      1281.7906     -2009.0072      507.34001     -2516.3472      313            30           
    488000   309.38266      1691.682      -1964.0234      526.27504     -2490.2985      313            30           
    489000   291.28881      1397.5352     -2016.34        495.49652     -2511.8366      313            30           
    490000   310.44349      1136.1863     -1976.2731      528.07956     -2504.3527      313            30           
    491000   309.0522       1338.2177     -1987.0057      525.71291     -2512.7187      313            30           
    492000   290.54989      1546.3802     -1996.887       494.23959     -2491.1265      313            30           
    493000   314.86626      1248.6841     -1986.6831      535.60291     -2522.286       313            30           
    494000   304.30391      1125.0195     -1990.2075      517.63583     -2507.8433      313            30           
    495000   297.85596      1207.5568     -2004.4311      506.66756     -2511.0987      313            30           
    496000   309.86812      1295.8291     -1994.2123      527.10084     -2521.3131      313            30           
    497000   309.19554      1388.4799     -1982.8141      525.95675     -2508.7709      313            30           
    498000   286.37087      1397.9908     -2015.278       487.13087     -2502.4088      313            30           
    499000   315.41686      1431.2043     -1950.8245      536.53952     -2487.364       313            30           
    500000   304.16176      1501.9069     -1982.7085      517.39404     -2500.1025      313            30           
    501000   310.40684      1252.0922     -1970.0977      528.01722     -2498.1149      313            30           
    502000   304.40063      1440.0563     -1980.8486      517.80036     -2498.6489      313            30           
    503000   289.83277      1442.4324     -2007.3183      493.01973     -2500.338       313            30           
    504000   297.90262      1432.7935     -2012.8656      506.74694     -2519.6125      313            30           
    505000   298.93457      1360.1225     -1973.2996      508.50234     -2481.8019      313            30           
    506000   307.3186       1108.336      -1975.8847      522.76397     -2498.6487      313            30           
    507000   301.70243      1052.6615     -1997.4693      513.21059     -2510.6799      313            30           
    508000   298.20821      1523.9049     -1990.9243      507.26676     -2498.191       313            30           
    509000   289.25564      1667.7886     -2016.6796      492.038       -2508.7176      313            30           
    510000   302.22824      1510.3074     -2001.0378      514.10502     -2515.1428      313            30           
    511000   322.71325      1892.2888     -1925.4883      548.95104     -2474.4393      313            30           
    512000   326.87718      1823.7943     -1925.0076      556.03408     -2481.0417      313            30           
    513000   300.65746      1730.836      -1953.9657      511.43304     -2465.3987      313            30           
    514000   302.3557       1694.0072     -1960.3632      514.32183     -2474.685       313            30           
    515000   276.86111      1319.1557     -2019.9368      470.9543      -2490.8911      313            30           
    516000   299.37093      1073.323      -1993.2349      509.2446      -2502.4795      313            30           
    517000   291.86315      1393.0705     -1989.6852      496.47351     -2486.1587      313            30           
    518000   297.40219      1331.3575     -1990.2091      505.89567     -2496.1048      313            30           
    519000   304.66319      1626.9579     -1992.5232      518.247       -2510.7702      313            30           
    520000   303.81376      1484.9676     -1983.3342      516.80207     -2500.1363      313            30           
    521000   313.36727      1213.45       -1982.9533      533.05305     -2516.0063      313            30           
    522000   287.57919      1420.611      -2016.7542      489.18628     -2505.9405      313            30           
    523000   302.41846      1460.3189     -1962.5371      514.4286      -2476.9657      313            30           
    524000   301.41778      1613.0472     -1993.8946      512.7264      -2506.621       313            30           
    525000   310.52648      1408.8071     -1967.1995      528.22073     -2495.4202      313            30           
    526000   301.24243      1500.1418     -1987.6626      512.42811     -2500.0907      313            30           
    527000   316.65711      1541.3499     -1971.0403      538.64924     -2509.6895      313            30           
    528000   321.97801      1180.9587     -1974.4275      547.70036     -2522.1279      313            30           
    529000   283.20109      1765.4168     -1992.5911      481.73891     -2474.33        313            30           
    530000   319.44876      1774.0103     -1950.6838      543.39797     -2494.0818      313            30           
    531000   323.12264      1361.3706     -1948.7395      549.64743     -2498.3869      313            30           
    532000   294.16165      1604.0874     -1990.2793      500.38337     -2490.6627      313            30           
    533000   306.43944      1551.5602     -1940.9205      521.26849     -2462.189       313            30           
    534000   290.9433       1107.6341     -2033.6985      494.90878     -2528.6073      313            30           
    535000   296.95853      1418.0947     -1988.3971      505.14098     -2493.5381      313            30           
    536000   314.58078      1783.2083     -1947.8618      535.1173      -2482.9791      313            30           
    537000   313.78351      1418.68       -1960.6925      533.76111     -2494.4536      313            30           
    538000   307.25058      1028.4994     -1995.6632      522.64827     -2518.3115      313            30           
    539000   310.70704      1828.2629     -1944.3029      528.52788     -2472.8308      313            30           
    540000   306.26691      1660.4276     -1968.2878      520.975       -2489.2628      313            30           
    541000   299.16732      1702.0941     -1983.3975      508.89825     -2492.2958      313            30           
    542000   303.51667      1623.3262     -1976.7104      516.2967      -2493.0071      313            30           
    543000   288.74071      947.27673     -2034.9889      491.16207     -2526.151       313            30           
    544000   315.07398      1044.3834     -1990.9593      535.95625     -2526.9156      313            30           
    545000   316.36296      1858.055      -1937.4351      538.14888     -2475.584       313            30           
    546000   306.20712      1045.7014     -1976.2105      520.8733      -2497.0838      313            30           
    547000   312.4949       1363.4346     -2003.5891      531.56912     -2535.1583      313            30           
    548000   294.94505      1650.3952     -1983.215       501.71596     -2484.931       313            30           
    549000   303.36331      1018.863      -2008.7601      516.03584     -2524.7959      313            30           
    550000   292.71832      894.44571     -2027.9668      497.92819     -2525.895       313            30           
    551000   308.76383      1124.1308     -1978.3059      525.22239     -2503.5283      313            30           
    552000   295.67825      1428.2515     -1961.5723      502.96318     -2464.5354      313            30           
    553000   280.42851      1322.6949     -2015.4404      477.02263     -2492.463       313            30           
    554000   300.38935      868.19747     -2016.2408      510.97699     -2527.2178      313            30           
    555000   306.60766      1679.096      -1953.7936      521.55463     -2475.3482      313            30           
    556000   306.0132       1340.2863     -1982.3401      520.54343     -2502.8835      313            30           
    557000   314.96278      1418.2063     -1972.9351      535.7671      -2508.7022      313            30           
    558000   287.546        1342.5477     -2022.6774      489.12982     -2511.8072      313            30           
    559000   294.83192      1415.614      -2009.5267      501.52353     -2511.0503      313            30           
    560000   310.57295      1197.5131     -1974.0606      528.29978     -2502.3603      313            30           
    561000   314.56078      1438.7293     -1971.3544      535.08327     -2506.4377      313            30           
    562000   298.69551      1666.1913     -1994.4958      508.09568     -2502.5915      313            30           
    563000   306.48318      1522.3864     -1977.152       521.34288     -2498.4949      313            30           
    564000   298.93956      1432.8111     -1994.9008      508.51082     -2503.4116      313            30           
    565000   302.54354      1941.4831     -1973.6545      514.64136     -2488.2958      313            30           
    566000   319.4856       1342.9688     -1986.6813      543.46064     -2530.1419      313            30           
    567000   299.42289      1379.4668     -1995.1169      509.33298     -2504.4499      313            30           
    568000   301.60529      1289.069      -1973.805       513.04536     -2486.8504      313            30           
    569000   298.24002      1394.2999     -1976.3003      507.32087     -2483.6211      313            30           
    570000   307.1338       1046.8257     -1975.939       522.44963     -2498.3887      313            30           
    571000   291.94516      1963.011      -1959.9426      496.613       -2456.5556      313            30           
    572000   303.29132      1450.3372     -1979.5279      515.91338     -2495.4413      313            30           
    573000   302.47463      1219.6384     -1978.5375      514.52415     -2493.0617      313            30           
    574000   296.0222       1245.6714     -1992.2658      503.54825     -2495.8141      313            30           
    575000   312.6049       1347.4503     -1963.7211      531.75623     -2495.4773      313            30           
    576000   303.10441      1190.12       -2000.1662      515.59543     -2515.7616      313            30           
    577000   308.49303      1390.81       -1964.4664      524.76174     -2489.2281      313            30           
    578000   307.29972      1417.7368     -1988.7328      522.73187     -2511.4646      313            30           
    579000   320.07626      1580.0474     -1963.4383      544.46538     -2507.9037      313            30           
    580000   289.51237      1776.1811     -1993.405       492.47471     -2485.8797      313            30           
    581000   292.22399      1544.2774     -2001.0772      497.08731     -2498.1646      313            30           
    582000   308.88159      1423.0031     -1968.8617      525.4227      -2494.2844      313            30           
    583000   303.63322      1690.4906     -1968.1708      514.9865      -2483.1573      312            30           
    584000   283.86219      1691.3299     -1999.0517      481.45324     -2480.505       312            30           
    585000   292.55465      1514.1989     -1972.7838      496.19637     -2468.9802      312            30           
    586000   285.24612      1206.2901     -2012.5895      483.80051     -2496.39        312            30           
    587000   282.23143      1147.5789     -2015.7001      478.68734     -2494.3874      312            30           
    588000   313.04497      1229.6978     -1978.8497      530.9496      -2509.7993      312            30           
    589000   291.54281      1454.3278     -1998.155       494.4802      -2492.6352      312            30           
    590000   319.09302      1213.3978     -1940.7457      541.20759     -2481.9533      312            30           
    591000   292.10774      1003.7327     -2004.1473      495.43837     -2499.5857      312            30           
    592000   297.99696      1616.7916     -1969.7747      505.42695     -2475.2017      312            30           
    593000   297.68626      1673.7293     -1975.8149      504.89998     -2480.7149      312            30           
    594000   292.44989      1252.8094     -1990.439       496.01868     -2486.4577      312            30           
    595000   284.94868      1593.6452     -1977.2862      483.29602     -2460.5823      312            30           
    596000   313.97336      1100.2795     -1976.8095      532.52422     -2509.3337      312            30           
    597000   306.0037       1519.2827     -1959.4475      519.00703     -2478.4545      312            30           
    598000   319.36539      1226.1162     -1952.9823      541.66954     -2494.6519      312            30           
    599000   324.89617      1382.4262     -1931.2344      551.0502      -2482.2846      312            30           
    600000   309.90122      1732.7363     -1937.5118      525.61754     -2463.1293      312            30           
    601000   303.28007      1582.345      -1954.683       514.38755     -2469.0706      312            30           
    602000   310.47754      1406.7738     -1969.6659      526.59504     -2496.2609      312            30           
    603000   299.56988      1345.7439     -1990.8911      508.09476     -2498.9858      312            30           
    604000   286.72335      2133.6637     -1943.033       486.30601     -2429.339       312            30           
    605000   316.68974      1255.0772     -1937.99        537.13143     -2475.1214      312            30           
    606000   282.99072      1745.557      -1974.676       479.97515     -2454.6512      312            30           
    607000   313.76199      1391.9667     -1937.8591      530.60694     -2468.466       311            30           
    608000   290.47786      1511.6193     -1985.5971      491.23086     -2476.8279      311            30           
    609000   306.01245      1629.0791     -1936.7215      517.50159     -2454.2231      311            30           
    610000   289.92866      693.49409     -2017.7438      490.3021      -2508.0459      311            30           
    611000   324.65425      1533.6135     -1931.2237      549.027       -2480.2507      311            30           
    612000   294.68302      1434.787      -1980.0484      498.34225     -2478.3906      311            30           
    613000   319.65309      1458.5142     -1939.1349      540.56946     -2479.7043      311            30           
    614000   297.3322       1692.1716     -1976.5581      502.82232     -2479.3804      311            30           
    615000   304.78316      1392.0864     -1955.387       515.42273     -2470.8097      311            30           
    616000   313.60449      1355.1242     -1938.3628      530.3406      -2468.7034      311            30           
    617000   289.2159       1103.4955     -1969.0569      489.09674     -2458.1537      311            30           
    618000   304.19577      1501.319      -1948.6282      514.4294      -2463.0576      311            30           
    619000   288.2564       1150.1831     -1969.0365      487.47412     -2456.5106      311            30           
    620000   301.69254      1354.3169     -1943.3351      510.19615     -2453.5313      311            30           
    621000   318.04375      1378.397      -1929.0302      537.84788     -2466.8781      311            30           
    622000   313.14522      1905.4376     -1927.8144      529.56392     -2457.3783      311            30           
    623000   297.30253      1161.4895     -1985.0519      502.77215     -2487.8241      311            30           
    624000   320.76892      981.77231     -1924.6183      542.45647     -2467.0748      311            30           
    625000   315.44973      1490.3035     -1924.3831      533.46111     -2457.8442      311            30           
    626000   313.52287      1550.231      -1941.9228      530.20256     -2472.1254      311            30           
    627000   317.71487      891.51477     -1956.2187      537.29172     -2493.5104      311            30           
    628000   302.27503      1267.297      -1951.698       511.1812      -2462.8792      311            30           
    629000   274.41746      1693.1161     -2006.8288      464.07091     -2470.8997      311            30           
    630000   290.82125      1716.9758     -1963.9963      491.81157     -2455.8079      311            30           
    631000   288.0128       1537.2691     -1956.4633      487.06217     -2443.5255      311            30           
    632000   301.07736      1963.8034     -1944.3985      509.15581     -2453.5543      311            30           
    633000   296.70997      1090.5485     -1976.8573      501.77006     -2478.6273      311            30           
    634000   296.42         1038.06       -1983.4954      501.27969     -2484.7751      311            30           
    635000   291.05318      1652.8261     -1958.7023      492.20379     -2450.9061      311            30           
    636000   316.58973      1368.8393     -1945.0646      535.38897     -2480.4536      311            30           
    637000   289.07039      1410.427      -1973.8181      488.85067     -2462.6687      311            30           
    638000   297.16291      969.86715     -1992.348       502.53603     -2494.8841      311            30           
    639000   301.63906      1200.2014     -1986.7715      510.1057      -2496.8772      311            30           
    640000   309.16062      1331.506      -1963.9048      522.82551     -2486.7303      311            30           
    641000   293.22569      1152.7737     -1994.2546      495.87776     -2490.1324      311            30           
    642000   290.66469      1435.89       -1996.6624      491.5468      -2488.2092      311            30           
    643000   301.08489      1492.4521     -1937.1835      509.16854     -2446.3521      311            30           
    644000   301.05363      1579.393      -1960.0832      509.11567     -2469.1989      311            30           
    645000   301.77781      1158.8832     -1935.7157      510.34035     -2446.0561      311            30           
    646000   300.00654      1084.2725     -1988.8055      507.34494     -2496.1505      311            30           
    647000   290.66355      1387.783      -1980.3213      491.54488     -2471.8662      311            30           
    648000   291.24972      1420.3506     -1971.6277      492.53615     -2464.1639      311            30           
    649000   305.60211      1292.4158     -1975.5805      516.80767     -2492.3882      311            30           
    650000   315.07521      1641.4833     -1938.2027      532.82775     -2471.0305      311            30           
    651000   306.13334      963.31671     -1970.3433      517.70605     -2488.0494      311            30           
    652000   308.02114      1687.4553     -1947.1466      520.89852     -2468.0451      311            30           
    653000   297.27665      1307.6342     -1979.3255      502.72837     -2482.0538      311            30           
    654000   286.84583      1486.1022     -1982.3095      485.08869     -2467.3982      311            30           
    655000   288.64693      1083.6418     -1981.8323      488.13454     -2469.9669      311            30           
    656000   294.1396       1178.8717     -2001.0506      497.42327     -2498.4739      311            30           
    657000   303.43296      1679.8333     -1956.3202      513.13939     -2469.4596      311            30           
    658000   304.23136      1109.8476     -1999.5715      514.48958     -2514.0611      311            30           
    659000   310.09985      1304.1187     -1980.1696      524.41385     -2504.5835      311            30           
    660000   313.31228      1270.4713     -1970.781       529.84643     -2500.6274      311            30           
    661000   312.90437      1332.1238     -1930.9167      529.15662     -2460.0734      311            30           
    662000   302.82923      1450.907      -1943.9239      512.11841     -2456.0423      311            30           
    663000   299.60176      1245.9204     -1956.1228      506.6604      -2462.7832      311            30           
    664000   305.05388      1845.4077     -1926.8223      515.88055     -2442.7029      311            30           
    665000   303.6049       1752.7839     -1937.6511      513.43017     -2451.0812      311            30           
    666000   307.40948      1333.7402     -1941.1432      519.86414     -2461.0073      311            30           
    667000   315.42518      1970.9249     -1911.0853      533.4196      -2444.5049      311            30           
    668000   311.2272       1765.1845     -1924.5651      526.32034     -2450.8855      311            30           
    669000   288.53235      1522.4632     -1982.9186      487.94077     -2470.8593      311            30           
    670000   302.19256      1342.5483     -1958.1687      511.04173     -2469.2104      311            30           
    671000   292.0782       1440.9537     -1980.3584      493.93721     -2474.2956      311            30           
    672000   299.16486      1625.1183     -1951.853       505.92155     -2457.7745      311            30           
    673000   285.64309      1163.0014     -1992.6952      483.05471     -2475.75        311            30           
    674000   310.1294       1435.4825     -1927.288       524.46383     -2451.7518      311            30           
    675000   286.08313      1177.8161     -1985.8214      483.79888     -2469.6203      311            30           
    676000   297.70896      1603.1877     -1965.4898      503.45947     -2468.9493      311            30           
    677000   316.37392      1616.5514     -1922.6525      535.02401     -2457.6766      311            30           
    678000   306.97089      929.46951     -1951.6817      519.12243     -2470.8042      311            30           
    679000   282.47013      1498.8362     -1990.9472      477.68889     -2468.6361      311            30           
    680000   299.10302      1757.1546     -1932.225       505.81697     -2438.0419      311            30           
    681000   320.92163      1587.2962     -1933.7573      542.71471     -2476.472       311            30           
    682000   294.57014      1425.6781     -1958.1839      498.15137     -2456.3352      311            30           
    683000   303.56264      1437.149      -1940.7867      513.35869     -2454.1454      311            30           
    684000   308.31395      1376.9404     -1951.9651      521.39369     -2473.3588      311            30           
    685000   289.92812      1326.426      -1973.7623      490.30119     -2464.0635      311            30           
    686000   297.49131      1436.5512     -1945.7532      503.0914      -2448.8446      311            30           
    687000   301.2657       1386.6427     -1954.0182      509.47431     -2463.4925      311            30           
    688000   288.17545      1290.5121     -1978.5748      487.33723     -2465.912       311            30           
    689000   311.83562      1395.2759     -1922.0742      527.34925     -2449.4235      311            30           
    690000   284.40778      1220.9513     -1996.1465      480.96567     -2477.1121      311            30           
    691000   283.91084      919.88945     -2011.1084      480.12529     -2491.2337      311            30           
    692000   311.14074      833.47476     -1969.9868      526.17412     -2496.161       311            30           
    693000   287.43082      1620.7464     -1973.4814      486.07797     -2459.5594      311            30           
    694000   314.24123      1791.1243     -1891.7532      531.4174      -2423.1705      311            30           
    695000   309.52146      1282.216      -1940.4163      523.43574     -2463.852       311            30           
    696000   283.77135      1424.7517     -2012.8582      479.88939     -2492.7476      311            30           
    697000   300.19871      1054.917      -1987.6352      507.66991     -2495.3051      311            30           
    698000   319.06306      1793.3296     -1913.2244      539.57165     -2452.7961      311            30           
    699000   310.27164      1332.0197     -1935.9348      524.70438     -2460.6392      311            30           
    700000   311.54703      1367.9251     -1948.4203      526.86121     -2475.2815      311            30           
    701000   306.59002      1462.2594     -1945.535       518.47834     -2464.0134      311            30           
    702000   304.67115      1225.9975     -1965.9527      515.23331     -2481.1861      311            30           
    703000   316.75732      1725.1841     -1923.8355      535.67239     -2459.5078      311            30           
    704000   312.09327      1837.8579     -1923.8949      527.78495     -2451.6798      311            30           
    705000   313.89843      1762.019      -1937.5615      530.83769     -2468.3992      311            30           
    706000   286.0423       1419.4689     -1974.5201      483.72982     -2458.25        311            30           
    707000   300.01588      1482.8401     -1961.8676      507.36072     -2469.2283      311            30           
    708000   284.76336      1255.3629     -2009.9596      481.56699     -2491.5266      311            30           
    709000   315.62997      1295.9186     -1945.8147      533.76591     -2479.5806      311            30           
    710000   291.57448      1541.9916     -1997.2945      493.08537     -2490.3799      311            30           
    711000   298.97109      1582.9813     -1944.3209      505.59387     -2449.9147      311            30           
    712000   288.19491      1292.0392     -1984.2108      487.37014     -2471.581       311            30           
    713000   300.43352      1472.8586     -1970.4269      508.067       -2478.4939      311            30           
    714000   308.01416      1194.8418     -1940.8717      520.88672     -2461.7584      311            30           
    715000   299.80338      1393.9167     -1966.2754      507.00136     -2473.2767      311            30           
    716000   284.24696      1411.6503     -1972.5379      480.6937      -2453.2316      311            30           
    717000   309.25651      1250.2007     -1964.7872      522.98767     -2487.7748      311            30           
    718000   291.43427      1294.3392     -1975.7123      492.84825     -2468.5606      311            30           
    719000   294.19648      1051.1677     -1977.9458      497.51946     -2475.4653      311            30           
    720000   300.52928      1844.057      -1932.37        508.22894     -2440.5989      311            30           
    721000   290.84214      1218.0733     -1990.6727      491.84689     -2482.5196      311            30           
    722000   295.93778      1465.6898     -1943.1532      500.4642      -2443.6174      311            30           
    723000   310.83894      993.59026     -1959.7047      525.66373     -2485.3684      311            30           
    724000   287.34456      1543.7899     -1968.3429      485.9321      -2454.275       311            30           
    725000   289.23222      1574.4842     -1997.2521      489.12434     -2486.3764      311            30           
    726000   308.23604      1201.3192     -1957.3129      521.26194     -2478.5748      311            30           
    727000   309.89481      1432.0618     -1947.7446      524.06711     -2471.8117      311            30           
    728000   294.77138      1227.5233     -1981.8165      498.49168     -2480.3082      311            30           
    729000   320.63411      1522.5533     -1932.5337      542.22848     -2474.7622      311            30           
    730000   303.08229      1592.0727     -1973.2214      512.54637     -2485.7678      311            30           
    731000   323.07338      1411.7355     -1918.8774      546.35357     -2465.231       311            30           
    732000   296.28099      1382.8086     -1990.4392      501.04461     -2491.4838      311            30           
    733000   294.56099      1217.6753     -1977.9239      498.1359      -2476.0598      311            30           
    734000   302.4374       1772.0884     -1954.7185      511.45578     -2466.1743      311            30           
    735000   280.74333      1452.5362     -1998.6934      474.76866     -2473.462       311            30           
    736000   292.08853      1743.7392     -1975.6019      493.95469     -2469.5566      311            30           
    737000   293.68216      1022.0718     -1952.4821      496.6497      -2449.1317      311            30           
    738000   304.05527      1575.8782     -1941.9018      514.19179     -2456.0936      311            30           
    739000   287.80627      993.26996     -2007.5404      486.71289     -2494.2533      311            30           
    740000   301.33715      1701.5695     -1977.9335      509.59514     -2487.5287      311            30           
    741000   276.65858      1235.5157     -2023.7798      467.8609      -2491.6407      311            30           
    742000   323.17386      1502.9205     -1922.6722      546.52349     -2469.1957      311            30           
    743000   291.27378      1323.9717     -1958.8716      492.57686     -2451.4485      311            30           
    744000   307.94278      1243.6721     -1961.9491      520.766       -2482.7151      311            30           
    745000   304.38409      1987.03       -1910.2121      514.74786     -2424.96        311            30           
    746000   314.47113      1395.1565     -1965.0151      531.80619     -2496.8213      311            30           
    747000   290.22126      1109.4512     -1993.4791      490.79691     -2484.276       311            30           
    748000   310.0172       1364.6451     -1967.6031      524.27409     -2491.8772      311            30           
    749000   289.48685      1394.5193     -1992.3953      489.55496     -2481.9503      311            30           
    750000   317.04131      1382.6263     -1928.7802      536.15266     -2464.9329      311            30           
    751000   316.44745      945.1838      -1968.1186      535.14837     -2503.267       311            30           
    752000   285.78963      1453.5953     -1988.3139      483.30253     -2471.6165      311            30           
    753000   312.53537      1497.321      -1940.628       528.5326      -2469.1606      311            30           
    754000   285.99302      1513.3669     -1996.8301      483.64649     -2480.4766      311            30           
    755000   295.0992       1779.1699     -1958.1858      499.04606     -2457.2318      311            30           
    756000   311.59854      1361.2206     -1947.978       526.94831     -2474.9263      311            30           
    757000   302.7954       1745.3328     -1936.2963      512.0612      -2448.3575      311            30           
    758000   288.27745      1739.6487     -1967.4107      487.50972     -2454.9205      311            30           
    759000   292.60652      1493.6565     -1983.437       494.83066     -2478.2677      311            30           
    760000   302.20795      1134.3396     -1969.3231      511.06777     -2480.3909      311            30           
    761000   303.53577      1460.712      -1947.832       513.31326     -2461.1452      311            30           
    762000   300.55878      1522.5064     -1954.4589      508.27883     -2462.7377      311            30           
    763000   335.27712      1438.6581     -1903.0212      566.99147     -2470.0126      311            30           
    764000   284.63051      1080.7639     -2019.9234      481.34233     -2501.2657      311            30           
    765000   313.04935      1072.0258     -1950.1904      529.4018      -2479.5922      311            30           
    766000   301.02367      1292.2924     -1994.9114      509.06501     -2503.9764      311            30           
    767000   309.68324      1035.9835     -1979.5352      523.70932     -2503.2445      311            30           
    768000   293.3475       1246.8694     -1979.8917      496.08374     -2475.9754      311            30           
    769000   290.69383      728.87516     -1993.8615      491.59608     -2485.4576      311            30           
    770000   298.88906      680.28384     -1982.9418      505.45514     -2488.397       311            30           
    771000   307.40516      1461.9173     -1946.8634      519.85683     -2466.7202      311            30           
    772000   309.05473      1330.8815     -1942.5153      522.64643     -2465.1617      311            30           
    773000   300.91052      1560.1655     -1963.7963      508.87367     -2472.6699      311            30           
    774000   296.26383      1256.0882     -1982.2239      501.01558     -2483.2394      311            30           
    775000   320.03256      1340.0239     -1943.1969      541.21119     -2484.4081      311            30           
    776000   279.4558       881.96689     -2023.548       472.59131     -2496.1393      311            30           
    777000   307.04797      1617.3951     -1934.6719      519.25278     -2453.9247      311            30           
    778000   295.04338      1308.3669     -1985.7104      498.95167     -2484.6621      311            30           
    779000   291.97302      1410.1873     -1972.3312      493.75933     -2466.0905      311            30           
    780000   315.1541       1586.0455     -1909.7892      532.96117     -2442.7504      311            30           
    781000   292.02045      1250.5743     -1951.2276      493.83954     -2445.0672      311            30           
    782000   316.83815      1716.2172     -1907.1588      535.80909     -2442.9679      311            30           
    783000   305.91123      1444.7259     -1917.3329      517.33042     -2434.6633      311            30           
    784000   299.00343      1005.4373     -1990.2836      505.64856     -2495.9321      311            30           
    785000   306.01191      1499.4083     -1942.1461      517.50068     -2459.6468      311            30           
    786000   283.44558      1555.3723     -1982.4951      479.33848     -2461.8336      311            30           
    787000   294.9278       1461.834      -1981.9407      498.75621     -2480.6969      311            30           
    788000   300.12109      819.18621     -1977.3049      507.53865     -2484.8436      311            30           
    789000   305.93301      1461.9673     -1955.4831      517.36726     -2472.8504      311            30           
    790000   300.63061      1626.6375     -1934.0315      508.40031     -2442.4318      311            30           
    791000   309.3524       1525.1119     -1936.5856      523.14983     -2459.7354      311            30           
    792000   298.52358      1294.5786     -1947.9215      504.83708     -2452.7586      311            30           
    793000   306.81837      953.674       -1943.6406      517.34022     -2460.9808      310            30           
    794000   334.81833      1250.859      -1922.6115      566.2156      -2488.8271      311            30           
    795000   291.38726      1142.6719     -2025.656       491.32114     -2516.9772      310            30           
    796000   323.05085      1527.7764     -1909.4023      544.71054     -2454.1128      310            30           
    797000   282.98981      1232.5229     -1987.0806      477.16182     -2464.2424      310            30           
    798000   310.39517      1438.0466     -1944.1549      523.37122     -2467.5262      310            30           
    799000   290.02058      1209.3456     -1990.4667      489.01671     -2479.4834      310            30           
    800000   273.75279      1384.6046     -2006.793       461.58686     -2468.3798      310            30           
    801000   309.72915      1313.627      -1942.5005      522.24822     -2464.7487      310            30           
    802000   314.55532      1108.5559     -1954.1391      530.38584     -2484.525       310            30           
    803000   298.23584      1023.0047     -1976.6333      502.86884     -2479.5022      310            30           
    804000   309.66737      1427.2791     -1928.8747      522.14405     -2451.0187      310            30           
    805000   282.76265      923.43978     -1995.989       476.77879     -2472.7678      310            30           
    806000   311.75305      1342.1706     -1954.0123      525.66081     -2479.6731      310            30           
    807000   302.87107      1544.9349     -1930.1096      510.68451     -2440.7941      310            30           
    808000   280.49363      1068.4726     -1974.3151      472.9529      -2447.268       310            30           
    809000   303.29472      1148.0983     -1982.8079      511.39883     -2494.2068      310            30           
    810000   310.00541      1239.546      -1962.9993      522.71404     -2485.7133      310            30           
    811000   291.2658       1075.1013     -1971.5636      491.11635     -2462.68        310            30           
    812000   283.51544      1289.1686     -1980.5622      478.0481      -2458.6103      310            30           
    813000   296.75554      839.68102     -1968.5711      500.37283     -2468.9439      310            30           
    814000   297.6805       1198.4725     -1950.5087      501.93245     -2452.4411      310            30           
    815000   287.34685      751.83812     -1990.8546      484.50841     -2475.363       310            30           
    816000   295.06711      1404.9107     -1972.3433      497.5259      -2469.8692      310            30           
    817000   294.5323       1065.3835     -1989.914       496.62414     -2486.5382      310            30           
    818000   304.10425      1355.8919     -1956.9035      512.76382     -2469.6673      310            30           
    819000   283.94617      1062.375      -1977.2699      478.77438     -2456.0442      310            30           
    820000   315.67538      1061.0331     -1962.884       532.27442     -2495.1584      310            30           
    821000   299.41124      1640.8923     -1953.6512      504.85073     -2458.502       310            30           
    822000   296.28432      1212.33       -1979.3678      499.57828     -2478.9461      310            30           
    823000   272.79172      1200.1807     -2005.6749      459.96636     -2465.6412      310            30           
    824000   291.80469      1252.1684     -1978.537       492.02498     -2470.5619      310            30           
    825000   305.28803      1636.6848     -1938.155       514.75985     -2452.9149      310            30           
    826000   307.12888      1060.9504     -1977.015       517.86378     -2494.8788      310            30           
    827000   301.49516      1086.9738     -1953.8742      508.36452     -2462.2388      310            30           
    828000   284.01984      748.90485     -1987.3226      478.89859     -2466.2211      310            30           
    829000   304.69654      1361.4492     -1947.8245      513.76252     -2461.587       310            30           
    830000   302.96922      1196.8759     -1954.4723      510.85        -2465.3223      310            30           
    831000   287.33137      980.89909     -1982.0029      484.48233     -2466.4852      310            30           
    832000   300.90386      1611.6806     -1945.7323      507.3675      -2453.0998      310            30           
    833000   285.57046      1021.1231     -1997.7807      481.51318     -2479.2939      310            30           
    834000   289.66501      1181.7667     -1953.9888      488.41717     -2442.406       310            30           
    835000   314.09493      1083.3684     -1943.8992      529.60956     -2473.5087      310            30           
    836000   298.4839       1104.6724     -1962.1934      503.2871      -2465.4805      310            30           
    837000   295.3451       1090.8265     -1976.0292      497.99464     -2474.0238      310            30           
    838000   316.26808      1612.9652     -1903.2851      533.27381     -2436.5589      310            30           
    839000   286.48436      1376.0548     -1980.9908      483.05415     -2464.045       310            30           
    840000   288.18758      1250.7433     -1983.6484      485.92601     -2469.5744      310            30           
    841000   283.90315      818.68543     -1996.2153      478.70184     -2474.9171      310            30           
    842000   295.86692      1126.8873     -1965.5166      498.87449     -2464.3911      310            30           
    843000   307.27982      1159.0854     -1932.7129      518.1183      -2450.8312      310            30           
    844000   284.05644      1327.7384     -1968.2436      478.96032     -2447.2039      310            30           
    845000   304.50181      1559.4118     -1930.4414      513.43418     -2443.8756      310            30           
    846000   282.72496      1044.2691     -1975.1284      476.71525     -2451.8437      310            30           
    847000   312.14794      1388.7543     -1931.0842      526.32665     -2457.4109      310            30           
    848000   305.0038       1421.7102     -1930.7792      514.2806      -2445.0598      310            30           
    849000   273.65963      1687.9195     -1992.0714      461.42979     -2453.5011      310            30           
    850000   307.40428      888.94173     -1963.5663      518.32816     -2481.8945      310            30           
    851000   307.94748      1213.2666     -1950.9449      519.24407     -2470.1889      310            30           
    852000   297.65761      1276.3829     -1978.798       501.89386     -2480.6919      310            30           
    853000   305.96754      885.42763     -1978.1405      515.9056      -2494.0461      310            30           
    854000   317.44492      1018.7426     -1936.8592      535.25812     -2472.1173      310            30           
    855000   282.42928      952.45319     -2001.6877      476.21668     -2477.9044      310            30           
    856000   319.60667      1083.2869     -1935.6468      538.90315     -2474.55        310            30           
    857000   304.961        1342.1957     -1969.4522      514.20843     -2483.6606      310            30           
    858000   304.36375      1312.6056     -1954.3911      513.20138     -2467.5925      310            30           
    859000   299.53651      1705.2761     -1959.9461      505.06196     -2465.0081      310            30           
    860000   295.83465      1437.8088     -1969.3408      498.82008     -2468.1608      310            30           
    861000   296.88405      1113.5135     -1973.7816      500.58952     -2474.3711      310            30           
    862000   305.27495      1286.1483     -1955.4667      514.73779     -2470.2045      310            30           
    863000   302.02837      1637.5057     -1962.4331      509.26359     -2471.6967      310            30           
    864000   292.55591      1538.0328     -1963.7297      493.29166     -2457.0213      310            30           
    865000   306.74975      1665.1852     -1951.9692      517.22453     -2469.1938      310            30           
    866000   290.7676       1310.8555     -1951.7915      490.2763      -2442.0678      310            30           
    867000   310.69783      1146.2287     -1936.6635      523.88155     -2460.5451      310            30           
    868000   309.39075      1746.4437     -1939.373       521.67763     -2461.0507      310            30           
    869000   294.73183      962.34549     -1974.0342      496.96056     -2470.9947      310            30           
    870000   286.44668      1206.5669     -1971.8887      482.9906      -2454.8793      310            30           
    871000   309.57021      1354.0863     -1936.5171      521.98023     -2458.4973      310            30           
    872000   327.71011      1380.6569     -1902.0443      552.56673     -2454.611       310            30           
    873000   308.54547      1013.8634     -1956.1412      520.25236     -2476.3936      310            30           
    874000   300.56109      1292.5445     -1949.3783      506.78955     -2456.1678      310            30           
    875000   301.89233      1163.9845     -1957.6405      509.03421     -2466.6747      310            30           
    876000   295.88041      1537.3908     -1935.7019      498.89725     -2434.5992      310            30           
    877000   268.62988      1726.0676     -1973.5299      452.94891     -2426.4788      310            30           
    878000   312.42451      901.69741     -1948.3769      526.79298     -2475.1699      310            30           
    879000   301.55669      745.09509     -1976.3789      508.46827     -2484.8471      310            30           
    880000   313.47449      1008.5302     -1952.3419      528.56341     -2480.9053      310            30           
    881000   287.44504      1420.0842     -1960.0979      484.67399     -2444.7719      310            30           
    882000   303.31409      1261.8567     -1952.2975      511.4315      -2463.729       310            30           
    883000   299.85937      1681.126      -1944.5257      505.60634     -2450.132       310            30           
    884000   289.80606      1086.4556     -1962.1317      488.65501     -2450.7867      310            30           
    885000   296.87533      1356.1845     -1956.5396      500.57482     -2457.1145      310            30           
    886000   298.76237      1172.6469     -1967.2023      503.75664     -2470.959       310            30           
    887000   309.0558       1386.0944     -1929.8529      521.11285     -2450.9658      310            30           
    888000   316.23068      893.57919     -1949.7776      533.21074     -2482.9883      310            30           
    889000   297.82932      1366.1004     -1970.0353      502.18339     -2472.2187      310            30           
    890000   290.40492      1464.3132     -1981.2815      489.66478     -2470.9463      310            30           
    891000   304.4153       1295.8913     -1948.8823      513.28829     -2462.1706      310            30           
    892000   312.41567      1105.3583     -1952.5347      526.77809     -2479.3128      310            30           
    893000   315.50459      1641.2988     -1929.4581      531.98645     -2461.4446      310            30           
    894000   283.41788      1009.8403     -1983.212       477.8836      -2461.0956      310            30           
    895000   302.27153      1164.5646     -1945.6696      509.67359     -2455.3432      310            30           
    896000   298.5624       1589.4809     -1935.4671      503.41946     -2438.8865      310            30           
    897000   298.47286      1940.8485     -1941.5741      503.26849     -2444.8425      310            30           
    898000   275.19365      1572.7383     -1991.0438      464.01636     -2455.0602      310            30           
    899000   315.28641      1345.5546     -1914.0184      531.61856     -2445.637       310            30           
    900000   299.53618      800.00876     -1992.4822      505.0614      -2497.5436      310            30           
    901000   303.94903      1460.6212     -1952.2512      512.5021      -2464.7533      310            30           
    902000   287.21005      1550.5004     -1987.5525      484.27776     -2471.8303      310            30           
    903000   294.4186       1325.1931     -1937.8392      496.43241     -2434.2716      310            30           
    904000   307.8817       1198.7703     -1947.9125      519.13315     -2467.0457      310            30           
    905000   302.95446      1168.582      -1964.6827      510.82511     -2475.5078      310            30           
    906000   302.99738      1015.5527     -1971.9767      510.89748     -2482.8742      310            30           
    907000   303.38418      1421.2651     -1946.6785      511.54968     -2458.2282      310            30           
    908000   296.75198      1120.5018     -1972.3458      500.36683     -2472.7126      310            30           
    909000   292.47726      1086.4596     -1989.4955      493.15903     -2482.6545      310            30           
    910000   303.72318      1164.9097     -1959.1362      512.12128     -2471.2575      310            30           
    911000   290.37364      1185.9639     -1971.4272      489.61203     -2461.0392      310            30           
    912000   296.78083      999.72683     -1972.3876      500.41548     -2472.803       310            30           
    913000   309.41853      1659.5308     -1923.2713      521.72447     -2444.9958      310            30           
    914000   309.10335      1854.7642     -1915.212       521.19303     -2436.405       310            30           
    915000   308.86488      1629.4927     -1926.6994      520.79094     -2447.4903      310            30           
    916000   300.62496      1369.5296     -1945.3086      506.89724     -2452.2059      310            30           
    917000   288.07226      1167.7686     -1971.3186      485.73157     -2457.0502      310            30           
    918000   286.89773      1196.4238     -1986.2663      483.75114     -2470.0175      310            30           
    919000   284.33283      1198.7507     -1969.7577      479.42635     -2449.184       310            30           
    920000   311.5889       1346.7841     -1926.9438      525.38402     -2452.3278      310            30           
    921000   295.14101      1322.5877     -1939.0302      497.6505      -2436.6807      310            30           
    922000   285.63933      1133.7141     -2000.3068      481.6293      -2481.9361      310            30           
    923000   315.43128      1312.9871     -1941.2184      531.86284     -2473.0812      310            30           
    924000   295.36324      1611.0102     -1959.1374      498.02522     -2457.1627      310            30           
    925000   310.50903      1261.6986     -1941.9207      523.56322     -2465.484       310            30           
    926000   297.79701      1496.6224     -1952.4488      502.12891     -2454.5777      310            30           
    927000   301.24577      1284.6725     -1949.2602      507.94402     -2457.2042      310            30           
    928000   295.81415      1442.3744     -1963.8838      498.78552     -2462.6693      310            30           
    929000   308.86713      1770.3885     -1924.9152      520.79474     -2445.7099      310            30           
    930000   304.20432      1608.799      -1936.2043      512.93256     -2449.1369      310            30           
    931000   295.1216       1155.8028     -1945.9146      497.61778     -2443.5324      310            30           
    932000   314.18407      1849.2522     -1922.8456      529.75986     -2452.6054      310            30           
    933000   298.2439       735.49143     -1975.4029      502.88243     -2478.2853      310            30           
    934000   278.31827      706.65342     -2027.6041      469.28493     -2496.889       310            30           
    935000   315.74054      1535.6276     -1932.6522      532.38429     -2465.0365      310            30           
    936000   287.39488      965.27425     -2007.8187      484.58941     -2492.4081      310            30           
    937000   299.27927      1678.3258     -1941.3475      504.6282      -2445.9757      310            30           
    938000   288.36127      1220.6675     -1982.5063      486.21888     -2468.7251      310            30           
    939000   303.29865      1346.6322     -1957.6649      511.40547     -2469.0704      310            30           
    940000   302.27799      1262.1012     -1949.6714      509.68449     -2459.3559      310            30           
    941000   296.8346       1764.0166     -1945.7555      500.50614     -2446.2616      310            30           
    942000   292.49878      1107.5248     -1972.8792      493.19533     -2466.0745      310            30           
    943000   301.94678      1563.6274     -1955.6591      509.12602     -2464.7851      310            30           
    944000   286.5122       1542.0046     -1961.3017      483.10109     -2444.4028      310            30           
    945000   336.58718      1268.5571     -1894.0565      567.53475     -2461.5913      310            30           
    946000   302.17928      1596.9135     -1939.3726      509.51805     -2448.8907      310            30           
    947000   298.18398      1443.2915     -1954.3773      502.7814      -2457.1587      310            30           
    948000   300.15284      1994.306      -1919.1383      506.10118     -2425.2395      310            30           
    949000   307.36173      1599.5869     -1913.6106      518.25641     -2431.8671      310            30           
    950000   307.49599      1507.3118     -1929.1606      518.4828      -2447.6434      310            30           
    951000   291.37881      807.13032     -1990.0179      491.30689     -2481.3248      310            30           
    952000   291.65891      1248.3698     -1959.5752      491.77917     -2451.3544      310            30           
    953000   284.58155      1193.8885     -1947.9547      479.84573     -2427.8004      310            30           
    954000   305.47857      1064.8481     -1974.3986      515.08113     -2489.4798      310            30           
    955000   305.78871      1451.3707     -1931.3895      515.60406     -2446.9936      310            30           
    956000   289.37515      825.30961     -1975.5113      487.92843     -2463.4397      310            30           
    957000   302.15099      1054.0969     -1924.4653      509.47035     -2433.9356      310            30           
    958000   290.3822       989.43948     -1984.3903      489.62646     -2474.0168      310            30           
    959000   309.44427      1454.2052     -1907.672       521.76787     -2429.4399      310            30           
    960000   301.88385      1278.4735     -1958.8021      509.01992     -2467.822       310            30           
    961000   290.51074      1398.0458     -1978.6777      489.84321     -2468.5209      310            30           
    962000   301.68105      1634.16       -1949.8382      508.67797     -2458.5162      310            30           
    963000   302.63827      1264.9349     -1959.4463      510.29198     -2469.7383      310            30           
    964000   292.81532      1147.6871     -1969.3751      493.72905     -2463.1041      310            30           
    965000   318.58729      1007.8264     -1953.3526      537.18433     -2490.537       310            30           
    966000   296.97542      1588.3924     -1955.2865      500.74358     -2456.0301      310            30           
    967000   303.2224       793.74924     -1952.2286      511.27691     -2463.5055      310            30           
    968000   296.74877      1123.4658     -1975.6821      500.36142     -2476.0436      310            30           
    969000   308.71666      1818.8743     -1931.1754      520.54102     -2451.7164      310            30           
    970000   301.02979      1277.2538     -1948.9602      507.57984     -2456.5401      310            30           
    971000   287.35609      1344.0518     -1976.1263      484.524       -2460.6503      310            30           
    972000   287.29186      1312.8991     -1990.2469      484.4157      -2474.6626      310            30           
    973000   302.74179      1029.2994     -1953.3128      510.46652     -2463.7793      310            30           
    974000   298.7159       1188.0269     -1944.1716      503.67829     -2447.8499      310            30           
    975000   296.74382      1458.7843     -1948.8526      500.35308     -2449.2057      310            30           
    976000   314.06483      1065.5544     -1910.4491      529.55881     -2440.0079      310            30           
    977000   295.88629      1272.4831     -1963.789       498.90716     -2462.6961      310            30           
    978000   305.02893      944.67425     -1947.3802      514.32296     -2461.7031      310            30           
    979000   302.80928      1188.8581     -1963.4456      510.58031     -2474.026       310            30           
    980000   305.46488      1340.6173     -1931.325       515.05804     -2446.383       310            30           
    981000   300.58845      1408.0312     -1954.1246      506.83568     -2460.9603      310            30           
    982000   301.94385      1118.6819     -1959.2734      509.12108     -2468.3945      310            30           
    983000   318.91701      1665.5955     -1907.2205      537.74028     -2444.9608      310            30           
    984000   304.51788      1746.191      -1932.6315      513.46127     -2446.0928      310            30           
    985000   298.84945      1599.7207     -1960.0112      503.90347     -2463.9146      310            30           
    986000   312.82888      1496.9953     -1921.2588      527.47482     -2448.7336      310            30           
    987000   293.68245      1167.9055     -1980.8647      495.19117     -2476.0558      310            30           
    988000   279.89348      1166.6997     -1991.0825      471.94096     -2463.0235      310            30           
    989000   309.00131      1554.1044     -1921.4185      521.02097     -2442.4395      310            30           
    990000   284.57374      1538.6114     -1959.94        479.83256     -2439.7725      310            30           
    991000   290.82887      1323.0752     -1935.161       490.37962     -2425.5406      310            30           
    992000   306.6406       1330.6016     -1928.4534      517.04049     -2445.4939      310            30           
    993000   302.8165       1145.5184     -1954.521       510.59249     -2465.1135      310            30           
    994000   308.55241      1096.7702     -1949.5691      520.26407     -2469.8332      310            30           
    995000   281.20051      1484.8155     -1966.9869      474.1448      -2441.1317      310            30           
    996000   296.06306      1110.2322     -1957.3168      499.20521     -2456.522       310            30           
    997000   301.37552      1249.774      -1943.817       508.16278     -2451.9797      310            30           
    998000   304.04084      1486.7497     -1917.362       512.65691     -2430.0189      310            30           
    999000   296.78         1141.4848     -1973.7418      500.41408     -2474.1559      310            30           
   1000000   302.67614      1406.0292     -1948.5988      510.35583     -2458.9546      310            30           
Loop time of 1233.73 on 4 procs for 1000000 steps with 1020 atoms

Performance: 17.508 ns/day, 1.371 hours/ns, 810.552 timesteps/s, 826.763 katom-step/s
94.3% CPU use with 4 MPI tasks x 1 OpenMP threads

MPI task timing breakdown:
Section |  min time  |  avg time  |  max time  |%varavg| %total
---------------------------------------------------------------
Pair    | 390.83     | 394.04     | 398.07     |  13.1 | 31.94
Bond    | 3.0443     | 3.0584     | 3.0742     |   0.6 |  0.25
Kspace  | 84.494     | 88.332     | 91.324     |  26.1 |  7.16
Neigh   | 10.437     | 10.438     | 10.439     |   0.0 |  0.85
Comm    | 29.818     | 30.082     | 30.357     |   3.7 |  2.44
Output  | 10.741     | 12.85      | 17.428     |  74.6 |  1.04
Modify  | 687.37     | 692.07     | 694.22     |  10.4 | 56.10
Other   |            | 2.851      |            |       |  0.23

Nlocal:            255 ave         257 max         252 min
Histogram: 1 0 0 0 0 0 1 0 1 1
Nghost:         3815.5 ave        3831 max        3805 min
Histogram: 1 1 0 0 1 0 0 0 0 1
Neighs:        55242.2 ave       56063 max       54269 min
Histogram: 1 0 0 1 0 0 0 0 1 1

Total # of neighbors = 220969
Ave neighs/atom = 216.63627
Ave special neighs/atom = 2
Neighbor list builds = 260010
Dangerous builds = 1
    write_data      last_snap.data nocoeff nofix
System init for write_data ...
PPPM initialization ...
  using 12-bit tables for long-range coulomb (src/kspace.cpp:342)
  G vector (1/distance) = 0.19302139
  grid = 9 9 9
  stencil order = 5
  estimated absolute RMS force accuracy = 0.023861798
  estimated relative force accuracy = 7.1859097e-05
  using double precision FFTW3
  3d grid and FFT values/proc = 1400 243
Generated 10 of 10 mixed pair_coeff terms from arithmetic mixing rule
0 atoms in group FixGCMC:rotation_gas_atoms:acngcmc
WARNING: Neighbor exclusions used with KSpace solver may give inconsistent Coulombic energies (src/neighbor.cpp:658)


Total wall time: 0:20:33
