LAMMPS data file via write_data, version 4 Jul 2026, timestep = 1000000, units = real

999 atoms
5 atom types
666 bonds
3 bond types
333 angles
2 angle types

0 30 xlo xhi
0 30 ylo yhi
0 30 zlo zhi

Masses

1 15.035
2 12.0107
3 14.0067
4 12.0107
5 15.9994

Atoms # full

590 197 2 0.129 0.5652782812830935 1.4971817041886395 5.320476821775976 1 0 1
431 144 2 0.129 4.759075575297141 4.097542722893321 5.101186509376008 0 0 1
432 144 3 -0.398 4.276965334929865 3.8982106099187956 4.068478697422033 0 0 1
430 144 1 0.269 5.4007780559934275 4.3628594506208636 6.4757500620200235 0 0 1
591 197 3 -0.398 1.6503544985610485 1.523882499755096 4.919795314573582 1 0 1
127 43 1 0.269 3.5889575508899494 1.8068157558538143 1.8346358581913391 1 0 1
128 43 2 0.129 3.1522065749282024 0.41173511512723054 1.3502820713103771 1 0 1
347 116 2 0.129 1.4787800428148525 6.113983506025696 3.6737810179244343 0 0 0
838 280 1 0.269 7.174933456910975 3.686984447838383 2.3558211507963414 1 0 1
80 27 2 0.129 0.7973308400273519 5.031938038648795 6.998567836084917 0 0 1
348 116 3 -0.398 2.112641145798 7.043639708637799 3.9432405641830655 0 0 0
346 116 1 0.269 0.6350928357327028 4.876584584657815 3.315122676318304 0 0 0
729 243 3 -0.398 5.7759421442794565 6.669049787721493 0.831401337924802 1 0 1
484 162 1 0.269 5.765889849452663 0.7024725753621306 5.563400478292683 0 0 1
839 280 2 0.129 7.783692332071282 4.349397787748919 3.6057096254297694 1 0 1
902 301 2 0.129 13.959049803210284 0.331073694727525 0.8168460106991426 0 0 1
913 305 1 0.269 8.937318972912953 7.195946820596426 6.1813353483962485 0 0 0
840 280 3 -0.398 8.241052084383274 4.847068069746635 4.54474921319008 1 0 1
584 195 2 0.129 10.804897796638276 5.196052465227691 2.5835226733378596 0 0 1
585 195 3 -0.398 10.390401609659458 5.809594485558226 1.69447368690991 0 0 1
1068 356 5 -0.35 13.318422074961793 5.056340165119959 7.012254598351549 0 0 0
859 287 1 0.269 10.647314733053795 2.233162536123684 7.064914856189961 0 0 0
583 195 1 0.269 11.356604043783804 4.3794105366978435 3.7668722317639887 0 0 1
1066 356 4 0.7 12.92810554766591 6.075540574084707 6.619210663293486 0 0 0
860 287 2 0.129 9.472884713271013 2.0479218783675037 6.0861400979609614 0 0 0
714 238 3 -0.398 13.082799291473627 0.4746683309479116 5.583040429177884 0 0 1
901 301 1 0.269 13.408807296062271 0.4605904715254261 2.24934682670368 0 0 1
713 238 2 0.129 13.916605946382948 1.1529389239487473 6.011251200760864 0 0 1
861 287 3 -0.398 8.590536964642 1.9087508127675619 5.350787893239564 0 0 0
687 229 3 -0.398 14.56587459840462 3.8868034512604566 2.8473610713850257 0 -1 1
686 229 2 0.129 14.931444575345335 4.9751827862912785 2.7043994855040063 0 -1 1
1067 356 5 -0.35 12.537789020370026 7.094740983049455 6.226166728235422 0 0 0
914 305 2 0.129 9.574685921988708 6.121674555107247 7.082058653204911 0 0 0
311 104 2 0.129 9.221080448176478 0.10997233654428906 1.5401457946109738 1 0 1
312 104 3 -0.398 10.349767923801876 0.34773140502710914 1.6306124056964126 1 0 1
712 238 1 0.269 15.026426385933819 2.0557364288936744 6.581211951182463 0 0 1
685 229 1 0.269 15.418028641454844 6.423846724015974 2.5141135371403323 0 -1 1
699 233 3 -0.398 16.536538086090772 5.495659256207368 6.472117004039902 -1 0 1
402 134 3 -0.398 17.584158233508788 1.8446494159571234 4.212047538223503 0 -1 1
401 134 2 0.129 17.43578563547979 1.4994872259270209 3.1177451875324897 0 -1 1
400 134 1 0.269 17.23829747561405 1.0400665062672487 1.661197547027593 0 -1 1
41 14 2 0.129 21.37700983263972 4.456942025189851 2.4714436560940882 1 0 1
697 233 1 0.269 18.887492304263564 4.456268000480912 5.655729178570567 -1 0 1
698 233 2 0.129 17.545086113686594 5.049765417543847 6.121890562042122 -1 0 1
40 14 1 0.269 19.885364504550044 4.676083684135233 2.1574832310364473 1 0 1
719 240 2 0.129 20.655065159777354 7.330824162010596 7.293765459090038 0 0 0
948 316 3 -0.398 21.249008985101995 0.2617511516264449 0.23534068597268365 0 0 1
42 14 3 -0.398 22.49768103043177 4.292301181423744 2.707321715699083 1 0 1
216 72 3 -0.398 22.268792033265804 4.640437170456417 5.839391545548047 0 0 1
888 296 3 -0.398 18.411192352492645 7.29962572237661 3.914832393919566 0 -1 1
678 226 3 -0.398 21.191634462068425 7.445560581391598 0.001578490700897106 -1 -1 1
81 27 3 -0.398 29.96659569507619 4.608036088579911 6.313852380095309 -1 0 1
215 72 2 0.129 22.583299490849136 3.5718496204951933 5.526574175198682 0 0 1
589 197 1 0.269 29.12101088749913 1.4616421837285387 5.853795336116237 0 0 1
214 72 1 0.269 23.00191788728676 2.1495291132002143 5.110205333074202 0 0 1
567 189 3 -0.398 25.869375518618558 1.2259355529178781 4.232507645130438 0 0 1
607 203 1 0.269 27.1506111289742 6.013504108863583 5.881913463752441 -1 -1 1
268 90 1 0.269 25.886289366558437 4.072144117358907 2.312897384880217 -1 0 0
608 203 2 0.129 26.80817993177825 4.678356289355678 6.568733072710799 -1 -1 1
609 203 3 -0.398 26.550911818040763 3.6752614665175933 7.084739752947692 -1 -1 1
384 128 3 -0.398 27.665808103866226 6.992446554237804 2.6149299499236545 0 0 0
269 90 2 0.129 25.821926051121398 4.5889846888565895 0.8636447542874307 -1 0 0
549 183 3 -0.398 28.76664804691626 1.8138108604768441 1.7896703582786095 0 0 1
548 183 2 0.129 29.198901756209192 0.7496453000565149 1.9288011989231435 0 0 1
490 164 1 0.269 23.88583584116132 7.157213101244144 4.498919392540273 1 0 1
566 189 2 0.129 25.355821518848646 0.5016121860043495 3.49070784096271 0 0 1
238 80 1 0.269 4.8597483792345 8.748162020636027 5.0394322654967665 0 0 1
239 80 2 0.129 6.117532177877157 9.441490891382655 5.595197497282648 0 0 1
240 80 3 -0.398 7.062503512311933 9.962387971547496 6.012743194150353 0 0 1
498 166 3 -0.398 2.718478482873902 11.391614484054127 5.226543746249002 1 0 1
518 173 2 0.129 1.1547571681391045 8.971423968650118 7.088991774620959 1 0 1
76 26 1 0.269 2.8759346427395105 9.439991438414602 1.1471021922236726 0 0 0
497 166 2 0.129 2.1044288398739948 11.980019860088111 6.010999703830577 1 0 1
77 26 2 0.129 3.8774701323699317 10.609726351280898 1.1313892474759768 0 0 0
78 26 3 -0.398 4.629922445033823 11.48854667218109 1.1195841324934546 0 0 0
496 166 1 0.269 1.2871112510927851 12.763204198110875 7.055132957655668 1 0 1
469 157 1 0.269 1.3555616552948886 13.187058077534564 2.3534439565000738 1 0 1
4 2 1 0.269 5.181215718992308 14.068276238815193 2.764605838197432 0 0 1
470 157 2 0.129 0.6293273541117984 11.829088039494529 2.3433883326667058 1 0 1
471 157 3 -0.398 0.08370846679436994 10.808846913512506 2.335833555539944 1 0 1
319 107 1 0.269 5.8070864712969845 13.493399594208764 7.26472453437889 0 0 1
517 173 1 0.269 0.10904940577250732 8.921038330112912 5.9595863721388955 1 0 1
1076 359 5 -0.35 8.425402744715793 8.091488700035315 0.8982746451193335 0 0 0
568 190 1 0.269 13.068301430062709 12.911791162644217 0.6675619659757461 -1 0 1
708 236 3 -0.398 9.041256144328447 14.758423837955357 5.449680419984448 0 0 1
1077 359 5 -0.35 8.061514627788082 8.430570375552021 3.164330481961735 0 0 0
467 156 2 0.129 9.339092565168793 11.924637882562866 2.5123736477783214 0 0 1
308 103 2 0.129 14.055740609822665 11.196080575131752 4.475064004174659 0 0 0
466 156 1 0.269 8.138740022427072 11.709812292163456 3.4529073998808766 0 0 1
307 103 1 0.269 13.321258306139569 12.54703268154478 4.559112512522755 0 0 0
468 156 3 -0.398 10.24091587163124 12.086036069635666 1.805751861296074 0 0 1
571 191 1 0.269 11.56410797220913 9.174699287894637 1.3973652112023947 0 0 1
406 136 1 0.269 9.554012325845937 11.66542339988205 6.623662860162824 -1 0 0
1075 359 4 0.7 8.243458686251937 8.261029537793668 2.0313025635405344 0 0 0
309 103 3 -0.398 14.607556210706655 10.181112012066897 4.411918469006641 0 0 0
569 190 2 0.129 13.608875035886213 14.31150431728623 0.32088739031898855 -1 0 1
572 191 2 0.129 12.40130258920583 9.653997644588564 0.19695767267959055 0 0 1
720 240 3 -0.398 20.35451642453405 8.236290588498248 6.639204531255268 0 0 0
616 206 1 0.269 15.926615546050137 10.009421966770933 1.1464024961795483 0 0 1
457 153 1 0.269 20.164449423872444 13.989526608170873 1.3450551399199016 -1 0 1
732 244 3 -0.398 21.638345740586733 14.768159207336522 4.250544722952022 -1 0 1
458 153 2 0.129 20.00715241667579 12.460887721459935 1.445657354419092 -1 0 1
618 206 3 -0.398 16.385775107440026 12.413797829439526 2.27863842927904 0 0 1
759 253 3 -0.398 15.394134149602106 12.079413310390551 7.377144644314586 1 0 1
886 296 1 0.269 20.603102301371997 8.763483028178898 3.3434642426778614 0 -1 1
166 56 1 0.269 17.7724919231439 11.965626015656088 5.281393688525914 0 -1 1
617 206 2 0.129 16.188797868831166 11.382332173856447 1.792914671549672 0 0 1
887 296 2 0.129 19.351511155182088 7.927613450523904 3.6697182111288167 0 -1 1
154 52 1 0.269 16.65578899684158 8.703589842787082 6.862905284489316 1 0 0
731 244 2 0.129 22.10771316409418 13.725448513822633 4.426889928109294 -1 0 1
167 56 2 0.129 18.87535334415292 12.07579276826472 6.350580282469973 0 -1 1
168 56 3 -0.398 19.703931697469436 12.158560906425881 7.153858781946128 0 -1 1
459 153 3 -0.398 19.88897537945077 11.312423311119316 1.521239667520104 -1 0 1
905 302 2 0.129 23.457692045315042 11.613728696949101 0.3828506410316792 -1 0 1
781 261 1 0.269 24.504582167707355 8.140007451458295 0.32259260908170195 -1 0 1
730 244 1 0.269 22.732454592098915 12.337570840519794 4.661610425898572 -1 0 1
383 128 2 0.129 27.559561604677143 8.131253866282782 2.7895111271554285 0 0 0
491 164 2 0.129 24.236811630911287 8.650023300344584 4.357732620955612 1 0 1
492 164 3 -0.398 24.500499285937725 9.771569664214205 4.2516591828234995 1 0 1
637 213 1 0.269 26.78051304013383 12.941874120302227 0.9862467682292297 0 0 1
382 128 1 0.269 27.418144483889595 9.64703887972208 3.0218836534622042 0 0 0
638 213 2 0.129 27.657504138868774 14.196112663399482 1.1576302264420577 0 0 1
420 140 3 -0.398 28.372618988206927 11.878402557300337 5.362407456615727 -1 -1 0
418 140 1 0.269 25.85151688872164 11.689648556675653 6.301675858733869 -1 -1 0
419 140 2 0.129 27.291078339669856 11.797428000858824 5.76534907369051 -1 -1 0
906 302 3 -0.398 23.982605854234425 11.31422347539779 1.3694666329300413 -1 0 1
255 85 3 -0.398 24.10469016807961 14.512172687175404 0.4805382393450963 -1 -1 1
79 27 1 0.269 1.9030630122181784 5.596163624738749 7.909943637488541 0 0 1
174 58 3 -0.398 1.7680023908302323 2.377176754191095 10.10179901204446 0 0 1
173 58 2 0.129 2.321434686827856 1.792253216574377 9.271000511269664 0 0 1
172 58 1 0.269 3.0580688578186397 1.0137033047941315 8.165184010670545 0 0 1
603 201 3 -0.398 2.5924861028699904 5.31543855055384 14.049356572879056 0 0 1
602 201 2 0.129 2.9543726267200037 5.269946735001265 12.95135036225323 0 0 1
601 201 1 0.269 3.436053911706197 5.20939583098142 11.48987277853347 0 0 1
631 211 1 0.269 5.145767202205148 1.1451719640582305 12.68529624038578 1 0 1
284 95 2 0.129 6.8132650760040345 3.472066399202286 9.963965244930305 0 0 0
285 95 3 -0.398 5.9664703863952635 2.779767348708696 9.586725562055141 0 0 0
475 159 1 0.269 0.9654361521236984 1.862539283077878 14.325737797940501 1 0 1
476 159 2 0.129 1.0130843069335214 0.8970267872880274 13.126940369758058 1 0 1
456 152 3 -0.398 5.982854610762624 7.066677082419903 12.287833025929661 0 -1 1
932 311 2 0.129 5.33616010961667 7.3663378713633865 8.950239040971649 0 0 1
933 311 3 -0.398 5.675831540224809 6.296086622290994 8.671250541050865 0 0 1
477 159 3 -0.398 1.0488823037614203 0.17163850311344575 12.226285418844364 1 0 1
283 95 1 0.269 7.9403729601851145 4.393536181190298 10.466082022482379 0 0 0
13 5 1 0.269 11.232513521212727 0.5008576667944524 14.391189527851509 0 0 0
828 276 3 -0.398 8.164192228938198 2.743873392091614 13.69978685617098 0 0 0
827 276 2 0.129 8.292569751618487 2.6356545023668656 14.844538743514601 0 0 0
688 230 1 0.269 14.813600144282328 5.558887328387624 9.914445652693866 0 -1 1
818 273 2 0.129 10.150380208527432 6.620284586471035 13.62001251274669 0 -1 1
912 304 3 -0.398 13.410790249313777 2.5999003423020026 9.10908327882245 0 -1 0
911 304 2 0.129 12.496269434689916 2.8628805577897394 9.767218588529012 0 -1 0
910 304 1 0.269 11.279016146426532 3.2129147253360695 10.643215457109918 0 -1 0
819 273 3 -0.398 10.909319470824565 6.314292656011129 12.802070500965304 0 -1 1
915 305 3 -0.398 10.053538883080039 5.314575197204003 7.758770902337135 0 0 0
951 317 3 -0.398 13.487649755007949 3.473252391971139 13.758897733653784 0 0 0
689 230 2 0.129 13.674125774111685 6.574795729180804 9.711644565610275 0 -1 1
690 230 3 -0.398 12.81804015963933 7.338046391335164 9.55928037226241 0 -1 1
817 273 1 0.269 9.14021040391414 7.027568573427177 14.708716659802294 0 -1 1
950 317 2 0.129 12.87149219278391 3.890743792912055 14.64473055572287 0 0 0
940 314 1 0.269 15.151770988567112 7.424793836323356 13.196200589420375 0 0 0
185 62 2 0.129 21.426177441646157 0.6848220960015731 8.849269543232912 0 0 0
529 177 1 0.269 15.300493435467766 1.160464695443169 11.662021055293323 0 -1 1
530 177 2 0.129 16.314941387769405 1.8844189972013405 12.566667683009591 0 -1 1
531 177 3 -0.398 17.077094816868758 2.428324923911857 13.24632751954707 0 -1 1
145 49 1 0.269 20.091213461772742 1.44542487334318 12.850128631744122 0 0 1
146 49 2 0.129 21.19407446606014 2.298457593051862 12.196192255383334 0 0 1
273 91 3 -0.398 17.987953701962567 1.8604991701963263 9.011362184392643 0 0 0
271 91 1 0.269 18.388324928973166 4.248462880938298 10.199276826426068 0 0 0
272 91 2 0.129 18.159711028492513 2.8849240917122563 9.520971839873795 0 0 0
147 49 3 -0.398 22.022652506294243 2.939339967534288 11.704890705091499 0 0 1
186 62 3 -0.398 21.18599264042981 1.462385414937208 8.026861161520728 0 0 0
718 240 1 0.269 21.055104098649164 6.125622522606114 8.165004723450926 0 0 0
24 8 3 -0.398 19.15008331719916 6.498216305126192 12.16498940209996 0 0 0
64 22 1 0.269 21.431320738656705 4.992987193784354 14.908565135062144 0 0 0
885 295 3 -0.398 28.52384148833133 3.7182078530766667 14.222856327418853 -1 -1 1
744 248 3 -0.398 29.934422917442784 5.990065680861344 10.753107385091791 -1 0 1
884 295 2 0.129 28.658234101288617 4.859743543426239 14.090629653701848 -1 -1 1
276 92 3 -0.398 24.771294299206566 5.696237086601232 10.263638381995596 0 0 0
275 92 2 0.129 24.31280871955666 4.806172070723802 9.683789918374849 0 0 0
742 248 1 0.269 28.61948689033584 3.638248532266492 10.636024746785017 -1 0 1
743 248 2 0.129 29.37032170002983 4.981147460273938 10.702879497616468 -1 0 1
274 92 1 0.269 23.7025513360987 3.6214701481211686 8.911995074834703 0 0 0
849 283 3 -0.398 25.08993241495287 0.9742360194307869 13.979639074771159 0 0 1
847 283 1 0.269 24.581366877593727 3.404055189910118 12.925528600019259 0 0 1
848 283 2 0.129 24.871760250798427 2.016616731423585 13.52743076209487 0 0 1
883 295 1 0.269 28.837114502286223 6.379160106207863 13.91463217961007 -1 -1 1
231 77 3 -0.398 25.292022182727962 1.010125176533737 9.222412600888049 -1 1 1
230 77 2 0.129 25.504512881629964 0.2324967673727793 8.39247841063838 -1 1 1
403 135 1 0.269 27.800584169805994 0.05305384506482369 11.200130730219605 0 -1 0
342 114 3 -0.398 2.832928943353013 14.826760045684102 11.980147645085102 1 0 0
455 152 2 0.129 5.822726037157762 7.93097162451092 13.04016459141568 0 -1 1
519 173 3 -0.398 1.9403960519430976 9.009278633447227 7.93751258674548 1 0 1
931 311 1 0.269 4.884047747355187 8.790872809627425 9.321580691687299 0 0 1
702 234 3 -0.398 2.930379939948832 8.32594146335285 12.098634117299587 0 0 1
341 114 2 0.129 2.63875531890364 13.828700191094962 12.532254636732596 1 0 0
320 107 2 0.129 4.681871357355026 13.399005613499487 8.311902037843362 0 0 1
321 107 3 -0.398 3.8364987035687697 13.328087538382196 9.098645136225434 0 0 1
454 152 1 0.269 5.6095903384961385 9.081372311477354 14.04153936310839 0 -1 1
701 234 2 0.129 2.0042350087988026 8.810490668782199 11.602532682083156 0 0 1
340 114 1 0.269 2.38030468653369 12.500254057933962 13.267124789832968 1 0 0
700 234 1 0.269 0.7715096898955593 9.455439481540365 10.942207521985223 0 0 1
223 75 1 0.269 5.969048871758915 12.668487000327614 12.186386525869901 0 -1 0
224 75 2 0.129 6.748519678310335 13.56102814005775 13.169949221188745 0 -1 0
225 75 3 -0.398 7.334135082972668 14.231593139192663 13.908898596827642 0 -1 0
111 37 3 -0.398 7.687185957584749 14.347073563508726 9.342858840599773 0 -1 0
952 318 1 0.269 11.761755192639875 14.355613960019989 7.7904637494311695 0 -1 1
407 136 2 0.129 9.943985886719872 11.443084576147157 8.096784059955805 -1 0 0
758 253 2 0.129 14.6230282379128 11.431914105104017 7.947047664231841 1 0 1
408 136 3 -0.398 10.236972516545286 11.276041706626852 9.203538104215848 -1 0 0
522 174 3 -0.398 8.248807002550292 10.490983556384608 12.659468666525097 0 -1 1
421 141 1 0.269 11.981920605991403 10.686389813578899 11.924405325150605 1 0 0
521 174 2 0.129 8.5143756650302 9.671920609883538 11.886643864143254 0 -1 1
520 174 1 0.269 8.8678551293509 8.581724466744697 10.85799200963329 0 -1 1
422 141 2 0.129 12.555490382497698 11.915481335804511 12.653755543819898 1 0 0
757 253 1 0.269 13.596664275940862 10.570074194869566 8.705604838538296 1 0 1
109 37 1 0.269 9.750489304547793 14.192994685315995 11.072843810968267 0 -1 0
795 265 3 -0.398 14.116646722971069 13.408477730888793 10.126256148997227 -1 0 1
110 37 2 0.129 8.572333147957847 14.280974467450516 10.085014054065233 0 -1 0
423 141 3 -0.398 12.986412610691065 12.838896200229858 13.201715415898061 1 0 0
794 265 2 0.129 13.740262540916051 14.433151342229419 10.509698371138962 -1 0 1
941 314 2 0.129 15.214503886326048 8.549091868151796 12.14566809626949 0 0 0
942 314 3 -0.398 15.26163503094104 9.393775519337192 11.356404398493144 0 0 0
221 74 2 0.129 22.27748375501616 14.687970994332051 7.63098821847533 0 0 0
155 52 2 0.129 17.461134406698175 8.880798777298477 8.16352658385089 1 0 0
156 52 3 -0.398 18.066189367220304 9.01393561965541 9.14068167694267 1 0 0
23 8 2 0.129 19.283456870803764 7.647109018439308 12.19508970932208 0 0 0
694 232 1 0.269 16.072840607161933 12.0945228878825 13.553442984529822 0 -1 1
22 8 1 0.269 19.46098087473729 9.176317988622712 12.235154076756881 0 0 0
314 105 2 0.129 17.846174084452205 13.978761949514583 10.618191335425978 0 -1 1
313 105 1 0.269 17.81866099658938 12.567182987648813 10.003140228270063 0 -1 1
957 319 3 -0.398 19.677398419345288 11.273104737891275 14.834439884680318 0 0 1
695 232 2 0.129 15.648648172133997 10.998466106969508 14.548591370992552 0 -1 1
291 97 3 -0.398 21.699868062017387 10.686998882962428 10.454189772657072 1 -1 0
289 97 1 0.269 22.463049956500498 10.690538837539307 7.867425410629698 1 -1 0
290 97 2 0.129 22.027269416083744 10.688517506412722 9.344480329992752 1 -1 0
160 54 1 0.269 21.088178537624408 14.215743974170639 12.270511989220774 -1 -1 0
411 137 3 -0.398 26.261796565425858 8.94152397885415 7.960645414123643 -1 -1 0
829 277 1 0.269 25.182778192017835 12.210851510504652 10.51811964115749 -1 -1 1
222 74 3 -0.398 22.993199499035075 13.811684940271052 7.872902924977797 0 0 0
538 180 1 0.269 23.42985936654047 7.923885526968465 12.178652256510876 0 0 1
345 115 3 -0.398 29.677123367159588 13.309671739959583 11.331795949835872 -1 0 1
426 142 3 -0.398 23.905058638505597 13.033449790707897 14.304822718222605 0 0 0
425 142 2 0.129 23.438175259506288 12.006840054364883 14.563166209835892 0 0 0
344 115 2 0.129 29.694213143027522 14.118993846989804 10.505143261802422 -1 0 1
539 180 2 0.129 24.741641954611435 8.706809570149737 12.373219428052845 0 0 1
194 65 2 0.129 28.76119285654005 10.89021733300175 14.21047615169402 0 0 0
830 277 2 0.129 26.335164797424667 12.559876949616628 9.55802258641101 -1 -1 1
195 65 3 -0.398 29.691266356516724 10.38531072549726 14.678110199150247 0 0 0
409 137 1 0.269 27.693831977330806 8.291098174574278 10.151542456929107 -1 -1 0
540 180 3 -0.398 25.727182509415407 9.295019387007354 12.519397491347688 0 0 1
831 277 3 -0.398 27.200951357460834 12.822099308741665 8.836702916059272 -1 -1 1
193 65 1 0.269 27.52323850047775 11.56226242855656 13.588041896652888 0 0 0
410 137 2 0.129 26.876132854478147 8.6624944439814 8.900529684989763 -1 -1 0
424 142 1 0.269 22.816740165591913 10.640393214288615 14.907028765656516 0 0 0
716 239 2 0.129 0.9865730553156107 2.74244103287078 21.829057150652165 0 0 1
143 48 2 0.129 4.997733235623489 2.940900330067249 20.32073967036372 1 0 0
142 48 1 0.269 6.402413336582998 3.048595853543723 19.6987465126903 1 0 0
144 48 3 -0.398 3.942398900032476 2.8599888231436945 20.788042321940445 1 0 0
93 31 3 -0.398 2.3596877311478197 5.738477156756575 17.577967428765398 0 0 0
389 130 2 0.129 5.6232922363897915 6.8171849241033735 20.443035544510675 0 0 0
92 31 2 0.129 3.324863825268352 5.252454047748418 17.164608450578037 0 0 0
450 150 3 -0.398 4.215911769535113 0.8938249997898575 15.718804928178747 0 0 1
449 150 2 0.129 3.6632420543339927 1.2466581371551384 16.672069824771793 0 0 1
809 270 2 0.129 1.1249497701090763 7.444082741291275 21.44103188384339 1 -1 1
91 31 1 0.269 4.609540735333712 4.6055434272881195 16.614415860769444 0 0 0
390 130 3 -0.398 6.330738557772743 6.072290369377248 20.975295635726965 0 0 0
448 150 1 0.269 2.927622900133708 1.716289106509099 17.940892591196416 0 0 1
717 239 3 -0.398 0.43267187883139757 3.4054882895771086 21.059504798915015 0 0 1
30 10 3 -0.398 7.841838865228264 5.705892699882698 17.73739844556674 1 -1 0
29 10 2 0.129 8.40567267343 6.61818462642137 18.17152271061236 1 -1 0
596 199 2 0.129 10.708811464702205 1.031868331166044 18.485042348915428 0 0 0
597 199 3 -0.398 11.119481095564401 1.597562027160331 17.56309327407441 0 0 0
212 71 2 0.129 11.298460497954462 5.293337542015331 19.98466242420048 0 0 -1
213 71 3 -0.398 12.163700533454657 5.940220745290056 19.57047550711115 0 0 -1
211 71 1 0.269 10.146801332293009 4.432317548028227 20.535957024302096 0 0 -1
949 317 1 0.269 12.051368903393225 4.446436755270762 15.8237993076558 0 0 0
252 84 3 -0.398 12.218471091094825 1.831103252397735 21.72356220081472 0 -1 0
318 106 3 -0.398 8.512813469216102 2.0739475006148043 22.14971181623497 1 -1 0
163 55 1 0.269 14.649757597507037 4.223042074728462 20.850044051595354 0 0 0
595 199 1 0.269 10.16219847288908 0.278913887059558 19.71218286339699 0 0 0
826 276 1 0.269 8.46344389589476 2.491612073519749 16.368236156227805 0 0 0
165 55 3 -0.398 15.267012779478376 4.33208110289047 18.2268941262831 0 0 0
164 55 2 0.129 15.00221328168793 4.285303885395679 19.352212800212012 0 0 0
481 161 1 0.269 17.51594914341274 5.129045257618705 15.797727157401107 0 -1 0
482 161 2 0.129 17.856793681321555 6.588716274001813 15.444477210609831 0 -1 0
66 22 3 -0.398 21.026242380310055 5.524074146055064 17.521545650245432 0 0 0
427 143 1 0.269 18.20139120341438 0.5451539311966284 16.18021901074288 -1 0 0
815 272 2 0.129 18.587451942761543 1.3904020119120335 20.106709629871396 0 -1 1
65 22 2 0.129 21.20001904349399 5.296240403460618 16.400589604243553 0 0 0
814 272 1 0.269 19.88872122263283 0.5960007155350775 19.889396856251935 0 -1 1
7 3 1 0.269 18.661136530695433 5.451154345564296 19.652795984330467 0 -1 0
293 98 2 0.129 22.29169425626539 4.008345526550947 20.05562730144372 0 0 0
294 98 3 -0.398 21.55537142602746 4.354537947865091 20.878201612430065 0 0 0
9 3 3 -0.398 16.900572625794155 7.463932928734902 19.302159260790937 0 -1 0
8 3 2 0.129 17.6558460547785 6.600460618490781 19.45258072506058 0 -1 0
564 188 3 -0.398 21.508640519893742 1.7760349634174177 16.501124861977804 0 0 1
816 272 3 -0.398 17.60981002275435 1.987234674190047 20.269976434467317 0 -1 1
563 188 2 0.129 22.110409558938475 0.7982914093239981 16.35780505847404 0 0 1
622 208 1 0.269 28.971512107000073 4.620875117327895 18.193466613119753 -1 -1 0
623 208 2 0.129 29.466140570577124 3.222288247396694 17.78006916480029 -1 -1 0
292 98 1 0.269 23.271760944741104 3.5475535396678257 18.960757432023705 0 0 0
624 208 3 -0.398 29.837754292887944 2.171531748363965 17.469484198757687 -1 -1 0
642 214 3 -0.398 26.552129810080583 4.921051711297157 21.115344034889784 -1 -1 1
206 69 2 0.129 25.142503593192775 6.463383318459248 16.502194656911584 0 0 1
205 69 1 0.269 25.34706541492421 6.675792723606388 18.013696130843112 0 0 1
1026 342 5 -0.35 25.90148326884507 2.391662758273043 16.7816260168658 0 0 1
764 255 2 0.129 25.748556882730067 1.2858616856830924 21.303598876590307 0 -1 1
1024 342 4 0.7 26.402287509768268 1.3481127521391196 16.85777387941576 0 0 1
1025 342 5 -0.35 26.90309175069147 0.3045627460051952 16.93392174196572 0 0 1
207 69 3 -0.398 24.988816562190653 6.3038004082285655 15.366605562535753 0 0 1
765 255 3 -0.398 25.434934235046775 1.3917119133292104 20.194957562112812 0 -1 1
641 214 2 0.129 27.361429737978426 5.154007642340566 21.908700298428396 -1 -1 1
808 270 1 0.269 0.8010958957593681 7.539135978047406 19.93847288325473 1 -1 1
380 127 2 0.129 3.5327647578880725 14.940761171604045 15.563826724115927 0 -1 1
388 130 1 0.269 4.6816610048169816 7.808660822355953 19.73458218195831 0 0 0
278 93 2 0.129 2.4382684662747733 9.428695565434051 15.819790644330281 1 0 0
56 19 2 0.129 2.034176216445293 11.187352329796646 18.876964783760027 1 -1 0
277 93 1 0.269 1.4705632361940963 8.244019028532286 15.997802134378203 1 0 0
55 19 1 0.269 1.5579953752386961 12.439844030034646 18.11794149867493 1 -1 0
57 19 3 -0.398 2.3919302640271325 10.24635694202043 19.447217992099933 1 -1 0
772 258 1 0.269 6.417555432939666 11.379078358732716 17.767188634561006 0 0 1
381 127 3 -0.398 2.9401819510316747 14.087577297229823 16.07330870959225 0 -1 1
180 60 3 -0.398 4.059105866859154 13.577694801700078 20.469748009682274 0 0 0
179 60 2 0.129 4.106823279246984 12.680680180672608 21.198950874609327 0 0 0
773 258 2 0.129 7.120227318517376 10.161024413072255 17.139337691517177 0 0 1
279 93 3 -0.398 3.1653041488743403 10.318741509067387 15.68605084304103 1 0 0
465 155 3 -0.398 6.948660238210184 11.051545322467481 20.819540434998522 1 0 0
204 68 3 -0.398 0.0996507589374922 14.576034861060808 20.970728255518544 1 0 -1
178 60 1 0.269 4.170336516133114 11.486728135398367 22.16954068618034 0 0 0
774 258 3 -0.398 7.648143793591023 9.245902065585794 16.66763409339918 0 0 1
28 10 1 0.269 9.156151553836805 7.8324712010709465 18.749354489497627 1 -1 0
464 155 2 0.129 8.02790414060779 11.173318117893418 21.218354909950897 1 0 0
399 133 3 -0.398 12.224092641418487 7.905164750931711 15.748835905800062 0 -1 0
463 155 1 0.269 9.4644085569365 11.33540118181386 21.749188351114814 1 0 0
439 147 1 0.269 13.462822305594862 8.035015301780824 21.26141231824037 0 -1 0
557 186 2 0.129 10.416748165217026 11.622368596360152 17.293949985129533 -1 -1 1
558 186 3 -0.398 10.544294856620217 11.27948420177177 18.391588875411543 -1 -1 1
556 186 1 0.269 10.246979881067574 12.078757505319633 15.8329613152641 -1 -1 1
131 44 2 0.129 13.977177513650194 12.808540091208155 18.979726193210684 0 0 0
398 133 2 0.129 13.11329065826187 7.885987911532863 16.488841402855034 0 -1 0
132 44 3 -0.398 13.551105685674234 13.636718930093677 19.666189308191203 0 0 0
397 133 1 0.269 14.296838580421603 7.860462991330418 17.473809825901405 0 -1 0
130 44 1 0.269 14.544291269123809 11.706210435301758 18.06602420784335 0 0 0
440 147 2 0.129 12.764519622196717 8.843311919301446 22.37074993162223 0 -1 0
494 165 2 0.129 14.417335861582774 14.98691080582439 22.459482660424243 0 -1 0
189 63 3 -0.398 19.190270622712237 13.748217158642777 21.21113166257355 -1 0 0
483 161 3 -0.398 18.112869739997198 7.685365212933795 15.179080984351708 0 -1 0
415 139 1 0.269 19.65413910914249 14.771695338912007 18.22733176927504 0 -1 0
416 139 2 0.129 20.75041479459655 13.724266759653094 17.957752480693117 0 -1 0
821 274 2 0.129 17.253699988047334 10.545637993044828 21.3047153536244 0 -1 1
822 274 3 -0.398 18.224509311253893 10.1287825621645 20.833111910337575 0 -1 1
820 274 1 0.269 15.961525089397284 11.100484461113714 21.932432987731325 0 -1 1
514 172 1 0.269 21.267958612259804 8.87902051070396 19.82104770414447 0 0 1
417 139 3 -0.398 21.57404529334353 12.937335028352734 17.75521791128449 0 -1 0
188 63 2 0.129 19.570769942590502 12.986039718691659 21.994045973083875 -1 0 0
955 319 1 0.269 18.942425781655263 10.401416409731832 17.278572385262468 0 0 1
956 319 2 0.129 19.362098700469744 10.899154646797289 15.882960946294535 0 0 1
705 235 3 -0.398 15.529109602577487 14.823357112905004 16.170462408656665 0 0 1
696 232 3 -0.398 15.329952946596773 10.17500007091994 15.296245061341507 0 -1 1
515 172 2 0.129 22.65454344438322 9.13204358526937 19.20059478323547 0 0 1
150 50 3 -0.398 28.82713705179905 14.36789816776427 17.08497063998731 -1 1 0
333 111 3 -0.398 23.074338655338792 12.573079027856002 22.460373786368063 -1 0 0
332 111 2 0.129 23.440635006706888 12.783700289155233 21.383287593316478 -1 0 0
354 118 3 -0.398 27.869806710675242 8.417332223963719 18.586775324343815 0 0 0
516 172 3 -0.398 23.69628282799802 9.32213949258897 18.73444930953956 0 0 1
877 293 1 0.269 25.578931443792225 8.66425997288948 21.201786597348825 -1 -1 1
203 68 2 0.129 29.08117175316816 14.831419390949465 20.484797955268537 0 0 -1
331 111 1 0.269 23.92818589789692 13.064043195292495 19.949655149669596 -1 0 0
352 118 1 0.269 27.961824720067746 10.857622659893453 17.44208135901543 0 0 0
141 47 3 -0.398 27.209140850861864 11.746192300279551 21.137809646998342 -1 0 0
140 47 2 0.129 28.1259425892849 11.373650202029802 21.73725602279609 -1 0 0
353 118 2 0.129 27.90928199316212 9.464205058361458 18.09570713083809 0 0 0
149 50 2 0.129 29.38123311544207 14.670023533420393 16.1152558284671 -1 1 0
810 270 3 -0.398 1.3682607653185603 7.372669367962152 22.569902509610333 1 -1 1
715 239 1 0.269 1.7238313196074755 1.8599062227344412 22.853353280017085 0 0 1
234 78 3 -0.398 5.140840413759776 5.001140654055889 25.739683548487744 1 0 0
123 41 3 -0.398 5.98571332878127 1.4985455540323742 29.415971741613845 0 0 0
122 41 2 0.129 6.317331937661423 2.503936579710359 28.949209506925843 0 0 0
625 209 1 0.269 2.914288937083162 0.6672577007437128 27.699527718900267 0 0 0
626 209 2 0.129 3.22430949935801 1.2875724504809627 26.324501587429925 0 0 0
627 209 3 -0.398 3.457227545170994 1.753614116354984 25.291446240604476 0 0 0
233 78 2 0.129 4.190657641454331 5.056061619316491 25.0818192868128 1 0 0
232 78 1 0.269 2.9259372703649773 5.129162990536301 24.20618319089282 1 0 0
316 106 1 0.269 6.642841920349894 1.4666833065378504 23.995855257308552 1 -1 0
770 257 2 0.129 0.3950179289094096 7.0155584609351465 26.129164370847366 1 -1 1
121 41 1 0.269 6.758725764520055 3.8421407106905665 28.3279356595451 0 0 0
581 194 2 0.129 0.1399967023412107 3.217651818117291 28.369274136409956 1 1 0
727 243 1 0.269 4.549103303237052 6.811226238305545 28.433806435734596 1 0 0
582 194 3 -0.398 1.189194633859649 3.6455657564780553 28.60320224898774 1 1 0
728 243 2 0.129 5.249634195044726 6.73004279970731 29.802844681701565 1 0 0
251 84 2 0.129 11.752335825918873 1.363410489841356 22.673630826974012 0 -1 0
317 106 2 0.129 7.710604688334307 1.8134340884727778 22.94169845372927 1 -1 0
126 42 3 -0.398 9.923835389481603 4.032391290197384 25.320674680398643 0 -1 0
250 84 1 0.269 11.131896492841118 0.7408980833272467 23.938199266287164 0 -1 0
124 42 1 0.269 8.04668199507889 5.570842304771972 24.144548577619258 0 -1 0
87 29 3 -0.398 9.307476325977966 2.529195963772497 29.466225712056723 0 0 0
86 29 2 0.129 10.182108313443207 2.282870470441579 28.749991366442636 0 0 0
85 29 1 0.269 11.346268435047765 1.9550042131126126 27.7966630239658 0 0 0
797 266 2 0.129 13.541982112132906 5.230288743685986 25.769853871890298 0 0 0
796 266 1 0.269 13.22958104813784 4.6442193900412665 24.380419350967294 0 0 0
82 28 1 0.269 10.940953058791933 6.412046856677547 28.44498577678541 0 0 0
125 42 2 0.129 9.118545631482368 4.692379359853594 24.8161222514347 0 -1 0
83 28 2 0.129 9.530254032494677 6.590549557616702 27.853660956605104 0 0 0
798 266 3 -0.398 13.776688625796726 5.670601887950229 26.81373422299934 0 0 0
84 28 3 -0.398 8.4703976861142 6.724658405010596 27.409399387157954 0 0 0
1052 351 5 -0.35 8.616349476482986 0.6017922649409051 26.536754395294295 0 0 0
754 252 1 0.269 14.878967356148227 3.473150882279127 28.873345002224376 0 0 0
903 301 3 -0.398 14.372446284229929 0.23376790852286947 29.7406100080256 0 0 0
54 18 3 -0.398 17.075675861501423 5.162202221173955 23.154240144450753 0 -1 0
671 224 2 0.129 15.339708346195819 0.5609996497895184 23.928498575736207 0 0 0
670 224 1 0.269 16.335855196482783 1.5520591473887455 23.298345796734473 0 0 0
756 252 3 -0.398 15.360197216560849 2.5404655214640983 26.388928604120355 0 0 0
761 254 2 0.129 18.789989668428394 2.758506476852883 28.236719376345164 0 0 0
762 254 3 -0.398 18.22943137321542 3.6404219932357833 28.733356486950456 0 0 0
755 252 2 0.129 15.153751926053834 2.9405830455512274 27.454731263596198 0 0 0
52 18 1 0.269 19.550076126178933 4.232455215614546 23.689705209440373 0 -1 0
53 18 2 0.129 18.137181648016764 4.763345237328113 23.38395207629836 0 -1 0
760 254 1 0.269 19.536108747622844 1.584651770517819 27.575681217026098 0 0 0
102 34 3 -0.398 22.33495642704816 3.8202324954521245 25.694503602605398 -1 0 0
676 226 1 0.269 21.92249324736071 5.873651583943985 27.93548155693642 -1 -1 0
170 57 2 0.129 16.58878839357834 6.882921494361269 28.049091708012277 1 -1 -1
169 57 1 0.269 17.114769676528503 6.0967553235986545 26.833819540169397 1 -1 -1
677 226 2 0.129 21.505169358094815 6.7712191983560475 29.11523286505555 -1 -1 0
171 57 3 -0.398 16.19361933879046 7.473567117460197 28.962124109437088 1 -1 -1
763 255 1 0.269 26.165997571954147 1.1449720136217107 22.779232086871502 0 -1 1
917 306 2 0.129 25.76460489534748 0.3014659001885318 28.53141507901418 0 0 0
101 34 2 0.129 22.813257211472923 2.7854358250533116 25.496834154916435 -1 0 0
248 83 2 0.129 22.841123078947128 7.057732174665536 22.978947545827968 0 0 0
771 257 3 -0.398 29.968391710139926 6.070516681790181 26.64252107444564 0 -1 1
270 90 3 -0.398 25.77356997582227 4.977286339001274 29.774823135069344 -1 0 -1
247 83 1 0.269 23.548841011683916 5.722616667869811 23.275935611577633 0 0 0
900 300 3 -0.398 29.03031743099385 0.7824190002410967 24.488957270692268 0 0 0
640 214 1 0.269 28.438631024895177 5.464078630937667 22.96468011333718 -1 -1 1
916 306 1 0.269 24.893969605226186 1.4942384831332047 28.968322113717218 0 0 0
100 34 1 0.269 23.44988919765627 1.4080919422407132 25.233730482106584 -1 0 0
580 194 1 0.269 28.743484330225055 2.6480861611807525 28.057909146462 0 1 0
118 40 1 0.269 26.621497405553175 6.366160181168309 26.763984606857246 0 0 0
119 40 2 0.129 26.229389082610552 5.0853077142527345 26.004203045435876 0 0 0
120 40 3 -0.398 25.934798608815356 4.123004919303824 25.4333801450693 0 0 0
190 64 1 0.269 29.269758220606413 6.4054044752386945 29.959439683163147 0 0 0
479 160 2 0.129 0.5021330109794147 10.803764970586375 28.84110575863736 1 0 -1
870 290 3 -0.398 6.444792081306225 8.659623019124096 24.739090984934425 0 0 0
769 257 1 0.269 0.9628695943415705 8.273436023496288 25.445871956377758 1 -1 1
800 267 2 0.129 7.146785844133094 13.263354666950493 24.9427049372584 0 0 0
799 267 1 0.269 7.209368713497451 14.507220047193595 24.036900156803046 0 0 0
598 200 1 0.269 4.104667160220185 11.360812246341682 26.68491831607604 1 0 0
599 200 2 0.129 3.16986237239397 11.726710119247569 25.517074681312007 1 0 0
600 200 3 -0.398 2.467544749332329 12.001608715969713 24.63967527519383 1 0 0
869 290 2 0.129 7.458558947066393 9.174765079888655 24.952525750421916 0 0 0
801 267 3 -0.398 7.099767415656106 12.328840222183429 25.623234892444668 0 0 0
480 160 3 -0.398 1.4824090501471305 10.237609576886571 28.601990813017057 1 0 -1
928 310 1 0.269 2.4011394695034682 14.955231701376617 23.430470231430284 0 -1 1
655 219 1 0.269 6.393831273629484 9.993718640146456 28.763992961961872 0 -1 0
1038 346 5 -0.35 0.2939251493988688 13.560365317238283 26.7986664344361 1 0 0
301 101 1 0.269 14.27688447213444 14.779990601393923 26.09087793691756 0 -1 0
868 290 1 0.269 8.807911560092029 9.86043385566862 25.236613510880627 0 0 0
441 147 3 -0.398 12.23988572304629 9.450584118308822 23.20419383985782 0 -1 0
656 219 2 0.129 7.927382564170625 10.130219642675788 28.72952681061265 0 -1 0
657 219 3 -0.398 9.07953765712913 10.232772668602044 28.703632435865217 0 -1 0
934 312 1 0.269 8.961218153275528 13.393173145807506 28.405269174047756 0 0 0
507 169 3 -0.398 11.176091105526188 13.240738526356626 24.74597131934459 -1 -1 0
505 169 1 0.269 11.756662654268906 11.289253151648007 26.514713954407917 -1 -1 0
506 169 2 0.129 11.425153501482923 12.403560707098979 25.50475338414558 -1 -1 0
573 191 3 -0.398 13.030285817689713 10.014093877507317 29.295093047958236 0 0 0
935 312 2 0.129 10.038417834838416 14.462581984726098 28.14525844102668 0 0 0
302 101 2 0.129 14.911636354350419 13.655138372031642 26.929565906381065 0 -1 0
682 228 1 0.269 17.375434598455968 14.84017310065543 29.421125582771236 0 0 0
249 83 3 -0.398 22.309415515196175 8.06080272100492 22.755820797729033 0 0 0
187 63 1 0.269 20.077225389965204 11.971559807261473 23.03612725068621 -1 0 0
738 246 3 -0.398 20.080176804623026 8.542850357429009 25.84728593468107 0 0 0
495 165 3 -0.398 15.428118558691178 14.522671697920744 22.777993868890704 0 -1 0
196 66 1 0.269 15.148231406359468 9.79749302893177 26.47657424857946 -1 -1 0
197 66 2 0.129 15.328889085626326 9.035465467119028 25.15057394768947 -1 -1 0
198 66 3 -0.398 15.46461696543915 8.4629551495753 24.154351643709134 -1 -1 0
737 246 2 0.129 19.636054190134914 8.418468307459834 24.786185935177848 0 0 0
736 246 1 0.269 19.04491432296837 8.252912251321085 23.37383157110268 0 0 0
654 218 3 -0.398 18.62604968850826 12.538705456661027 26.39558195633473 0 0 1
653 218 2 0.129 18.74816385117268 11.714419778353662 27.19825888500136 0 0 1
652 218 1 0.269 18.91070128462403 10.617272030217674 28.266644771039914 0 0 1
303 101 3 -0.398 15.388524619106198 12.810038352958808 27.559671088633845 0 -1 0
356 119 2 0.129 28.02636157206106 10.424228662399234 26.141601428599756 -1 -1 0
904 302 1 0.269 22.759016794030817 12.01237868933373 29.06963661551442 -1 0 0
896 299 2 0.129 23.37492173599229 11.50836441665321 25.575813352830554 -1 0 0
878 293 2 0.129 26.201556945792067 8.35100882114004 22.57503500903085 -1 -1 1
139 47 1 0.269 29.346231852181596 10.877786043598853 22.535136246416254 -1 0 0
1037 346 5 -0.35 29.461133929073338 13.368354354919976 24.641819065311292 0 0 0
879 293 3 -0.398 26.669334676839995 8.115663637650362 23.60675475728805 -1 -1 1
895 299 1 0.269 22.67466058425983 10.37879056920184 24.797804842253726 -1 0 0
355 119 1 0.269 26.53181483728278 10.138619199278796 26.378998337047392 -1 -1 0
1036 346 4 0.7 29.8775295392361 13.464359836079133 25.720242749873698 0 0 0
357 119 3 -0.398 29.14921259293019 10.638806681120235 25.963245439590718 -1 -1 0
478 160 1 0.269 29.197357643375025 11.557333947507468 29.15937457130397 0 0 -1
325 109 1 0.269 26.099777445032764 13.413830071731681 23.77950238653341 -1 0 0
326 109 2 0.129 25.702811792764926 14.529714004264104 22.795215172335432 -1 0 0
192 64 3 -0.398 28.078901452662272 8.58925532390504 28.91710354303488 0 0 0
191 64 2 0.129 28.589773265977573 7.6523938363607495 29.36426072291193 0 0 0
783 261 3 -0.398 24.061244973667247 8.58512852072049 27.699783358284364 -1 0 0
63 21 3 -0.398 26.637886869128355 13.455763624050087 27.984784854718328 0 0 0
62 21 2 0.129 26.215579540303825 14.532454019975152 28.017085185115988 0 0 0
897 299 3 -0.398 23.901027029858824 12.3570117812644 26.160330136426264 -1 0 0
782 261 2 0.129 24.25143449294956 8.394173727566482 28.82495588448849 -1 0 0
338 113 2 0.129 1.2135146330979112 17.558578671583703 2.784860941487465 0 -1 1
227 76 2 0.129 4.823421234214014 20.25935012241927 2.975093669151492 0 -1 1
228 76 3 -0.398 4.7547488540351655 21.406006458593094 3.113341095573011 0 -1 1
226 76 1 0.269 4.914826130908422 18.733117833994307 2.7910824014858577 0 -1 1
372 124 3 -0.398 3.3050322891874186 17.094818399138937 0.4909459425955961 1 0 0
337 113 1 0.269 1.077384048212444 19.0399321035749 2.3865388690533917 0 -1 1
5 2 2 0.129 5.358732695767026 15.181935457293559 3.813343588091632 0 0 1
6 2 3 -0.398 5.492100969876341 16.018626181825685 4.601258897590072 0 0 1
329 110 2 0.129 2.3299182353571775 21.347009681855507 5.273398321353092 0 -1 1
339 113 3 -0.398 1.3157893647293912 16.445639761964344 3.0841197972057883 0 -1 1
330 110 3 -0.398 2.443495633304037 20.195598632832745 5.272067582873312 0 -1 1
613 205 1 0.269 3.0554073166354536 16.99749363961304 6.788512361948941 0 -1 1
394 132 1 0.269 5.396972386714444 20.541792539429075 7.249390064843953 0 0 0
501 167 3 -0.398 8.058339672727762 20.344597597104123 0.48648501420064305 0 -1 1
747 249 3 -0.398 8.95196377066993 16.073223557772216 1.2435543606799855 0 -1 1
706 236 1 0.269 8.03217720567466 17.036996155062994 6.481027544515111 0 0 1
745 249 1 0.269 10.693787735416741 15.933100357799443 3.2978726818418806 0 -1 1
746 249 2 0.129 9.699197855657717 16.013111380401618 2.1248470182937473 0 -1 1
788 263 2 0.129 14.439202492386336 16.592333383623966 3.271976848435127 0 -1 1
851 284 2 0.129 13.789069935316597 20.413888718521054 3.800762282100418 0 -1 1
852 284 3 -0.398 14.754695436143313 20.94297171277345 3.445392647287133 0 -1 1
246 82 3 -0.398 9.347663644768952 21.914682963778542 5.980144023561274 0 -1 0
245 82 2 0.129 8.934608254801415 21.840605643111196 4.901929390298407 0 -1 0
244 82 1 0.269 8.38481974957236 21.74200661646668 3.466794960544892 0 -1 0
850 284 1 0.269 12.503794852107312 19.709664162644916 4.2737694019037455 0 -1 1
939 313 3 -0.398 12.520724949729171 19.62870093549217 0.9255223396816646 0 -1 1
789 263 3 -0.398 13.8209788076335 15.935572668422218 3.996624237569203 0 -1 1
570 190 3 -0.398 14.015007283897761 15.363106992559478 0.060431231854795486 -1 0 1
707 236 2 0.129 8.608366143578564 15.73592037888733 5.892123365139053 0 0 1
787 263 1 0.269 15.262075849792874 17.466500627712726 2.307450505076034 0 -1 1
412 138 1 0.269 17.51969079339751 19.873261708922414 0.8993211082744986 0 -1 0
413 138 2 0.129 17.986258059182592 21.335895987837258 1.0202175624959955 0 -1 0
1011 337 5 -0.35 16.507476170938425 18.977409424039212 5.226624836052978 0 -1 1
1009 337 4 0.7 16.343691025768873 19.74794714400482 6.078121194432011 0 -1 1
300 100 3 -0.398 18.15137470541601 16.684201699254228 1.7791713302474816 0 -1 1
802 268 1 0.269 20.80134310465771 20.428104276515104 6.586419439534836 0 0 1
803 268 2 0.129 19.508523491355263 21.04862693909497 6.025020229802614 0 0 1
299 100 2 0.129 18.611133289401078 16.8485435359482 2.8281054583816716 0 -1 1
298 100 1 0.269 19.223085077937814 17.067287207952273 4.224266700669184 0 -1 1
804 268 3 -0.398 18.537229794867642 21.51482480961764 5.603241732620676 0 0 1
740 247 2 0.129 21.93050941369289 19.511704420341466 2.3267447631786564 0 0 1
741 247 3 -0.398 21.16634743633149 19.27547553498751 3.1627479845121282 0 0 1
1010 337 5 -0.35 16.17990588059932 20.51848486397043 6.929617552811045 0 -1 1
414 138 3 -0.398 18.336789440035414 22.434771222060945 1.1110469115442232 0 -1 0
220 74 1 0.269 21.324845686054083 15.854332725752911 7.3089928442196666 0 0 0
739 247 1 0.269 22.947630801019205 19.82613180447724 1.2140006310666784 0 0 1
723 241 3 -0.398 29.48257872360759 21.968418430038707 2.4957274105394163 0 -1 1
724 242 1 0.269 24.473709231335235 18.081423479773637 5.817629243681854 0 0 1
823 275 1 0.269 28.55024275132026 15.946925234222135 4.6343539526458235 -1 -1 1
824 275 2 0.129 27.081796894087528 15.558908793532527 4.888735567804488 -1 -1 1
611 204 2 0.129 26.574717177102173 18.576246466133362 1.7023401880649665 -1 -1 1
612 204 3 -0.398 25.698697311950767 19.021494634459152 2.3130711144667537 -1 -1 1
304 102 1 0.269 27.965971789926208 20.677499220895584 4.685137057338324 -1 -1 1
253 85 1 0.269 23.839988481228115 16.283154043615678 2.4973096820520198 -1 -1 1
305 102 2 0.129 26.469444839750018 20.90005885775253 4.972320440281617 -1 -1 1
254 85 2 0.129 23.991134420327597 15.271915152656085 1.3457234670840326 -1 -1 1
610 204 1 0.269 27.740724603492133 17.98360845470578 0.8894399057324263 -1 -1 1
825 275 3 -0.398 25.97855542862112 15.267392545559881 5.079852144907462 -1 -1 1
725 242 2 0.129 23.980611746226003 19.160876004687367 6.799075684725231 0 0 1
639 213 3 -0.398 28.31638641239886 15.138420451947223 1.2863903960214336 0 0 1
306 102 3 -0.398 25.345106085624145 21.067267623884664 5.18808094292148 -1 -1 1
510 170 3 -0.398 27.373826187924955 18.032111470645606 7.277762969287916 -1 -1 1
722 241 2 0.129 0.10531092400483433 22.929046050685784 2.32825149872269 1 -1 1
328 110 1 0.269 2.1787434792308478 22.879570628696516 5.275169572225054 0 -1 1
650 217 2 0.129 5.812673079237537 25.190704905855576 4.588988312609763 0 -2 1
267 89 3 -0.398 0.33179045548999664 25.710301655687466 5.198141079638801 0 -1 1
266 89 2 0.129 0.9288169830604773 26.615416666984572 5.60184287763144 0 -1 1
265 89 1 0.269 1.7234763196711425 27.82015056274736 6.139181485158377 0 -1 1
649 217 1 0.269 7.341965320817682 25.360083113637852 4.653612321856206 0 -2 1
651 217 3 -0.398 4.663717804232196 25.06345127832045 4.540436378390193 0 -2 1
721 241 1 0.269 0.9341852443261539 24.20766881282623 2.1053362833400033 1 -1 1
485 162 2 0.129 6.0428573013772615 29.420187657697824 4.756781348526288 0 -1 1
129 43 3 -0.398 2.824076133897204 29.36361284154239 0.9863877002576007 1 -1 1
812 271 2 0.129 6.628517167601991 25.72371679082581 0.22644386970534575 0 -1 1
486 162 3 -0.398 6.2509425883102185 28.456808664361716 4.150769443890109 0 -1 1
811 271 1 0.269 5.564070484343043 26.492702680340624 1.0309399605751532 0 -1 1
375 125 3 -0.398 4.933261459183598 28.149346983782795 7.332558143399524 1 -1 1
805 269 1 0.269 14.145499478941113 22.570496793383786 0.2236425903767909 0 -1 1
114 38 3 -0.398 10.480494558500574 26.68768303819623 6.52416742136535 0 0 0
113 38 2 0.129 10.588186063781269 27.36826148109803 5.594724296291204 0 0 0
112 38 1 0.269 10.731526528891273 28.274130800085736 4.357608987203751 0 0 0
138 46 3 -0.398 9.807190632807423 24.687227982954372 2.303648735419401 0 -1 0
1069 357 4 0.7 12.732085300380017 24.67761561830878 3.5849509533112958 0 0 0
1071 357 5 -0.35 12.805132728020276 23.900171812356536 2.7271367532064397 0 0 0
137 46 2 0.129 9.913929106604566 25.55775473651389 1.5490368685977092 0 -1 0
1070 357 5 -0.35 12.65903787273976 25.455059424261027 4.442765153416151 0 0 0
107 36 2 0.129 14.841303524324124 27.516449793454093 3.324448674952002 0 -1 0
136 46 1 0.269 10.056001059627565 26.716450674700283 0.5446269507883618 0 -1 0
108 36 3 -0.398 14.399616705459676 27.096372202487085 2.3410379918651634 0 -1 0
116 39 2 0.129 13.923055582889027 23.58579128940227 7.2100500165705945 0 -1 0
115 39 1 0.269 12.610074900575126 22.78160529044193 7.178959713496773 0 -1 0
117 39 3 -0.398 14.909496264341742 24.189975186023773 7.233408120892943 0 -1 0
310 104 1 0.269 7.718765225650026 29.793508235020056 1.4197321549639785 1 -1 1
106 36 1 0.269 15.429201278041724 28.07558504850093 4.6333963430191965 0 -1 0
286 96 1 0.269 21.259119429794303 27.441308586864736 6.761843013718858 0 -1 0
667 223 1 0.269 17.096025730829613 23.828207008969187 3.6977268186300583 0 -1 1
669 223 3 -0.398 18.098596658991347 26.327064574940792 3.8538402357066897 0 -1 1
668 223 2 0.129 17.668498563372836 25.255066724058647 3.786868332274111 0 -1 1
920 307 2 0.129 20.715373380227383 24.40108084760235 1.3823934556355122 0 0 1
919 307 1 0.269 21.040673930828177 23.609389672869185 2.6626296196410015 0 0 1
288 96 3 -0.398 22.41827242992685 28.818415098063326 4.753422993131629 0 -1 0
287 96 2 0.129 21.921001380185153 28.227643042647397 5.615025501036495 0 -1 0
853 285 1 0.269 18.05009417879108 29.525968745162018 7.076735881130353 0 -1 1
946 316 1 0.269 20.05080716735414 28.638222211346825 2.024830888242237 0 -1 1
921 307 3 -0.398 20.47097549902925 24.99587739900903 0.420553688262554 0 0 1
947 316 2 0.129 20.73498618082529 29.56526506193289 1.0030233570983331 0 -1 1
544 182 1 0.269 17.34640042413149 26.22220796538267 0.3869295856806405 0 0 1
748 250 1 0.269 26.56284134786679 22.595790476424163 0.9965496550806052 0 -1 2
749 250 2 0.129 25.276740606260084 23.150259369658592 1.6369472884872796 0 -1 2
750 250 3 -0.398 24.310494789351672 23.566831129056148 2.1180771987804796 0 -1 2
576 192 3 -0.398 28.778537956502305 25.977867030083036 0.873878883192655 0 -1 1
565 189 1 0.269 24.672266497547287 29.537517125462575 2.503351143971954 0 -1 1
1056 352 5 -0.35 23.594650062200145 24.432264626461862 4.738863916028135 0 -1 1
547 183 1 0.269 29.774243772035575 29.333210586964622 2.1139883161163797 0 -1 1
1055 352 5 -0.35 24.367834430088045 26.237931794834882 3.504298401236678 0 -1 1
1054 352 4 0.7 23.981242246144095 25.335098210648372 4.121581158632407 0 -1 1
67 23 1 0.269 27.334536494597735 25.214448977093504 4.465746101120454 -1 -1 1
68 23 2 0.129 27.44121896341648 26.727873099942133 4.201613037637565 -1 -1 1
69 23 3 -0.398 27.52136936369134 27.864906677952437 4.003170210072825 -1 -1 1
575 192 2 0.129 27.950386234644203 26.11002167344789 0.0767911365673887 0 -1 1
867 289 3 -0.398 24.794802009260238 26.292295592048273 6.8650028624015595 -1 -1 1
866 289 2 0.129 24.81876253300827 25.231402898489492 7.326068569275275 -1 -1 1
229 77 1 0.269 25.78734406253669 29.19745117523113 7.287812332000103 -1 0 1
395 132 2 0.129 6.476644285685883 19.81919500860116 8.076288727928878 0 0 0
614 205 2 0.129 1.8382209958422204 17.408765459747457 7.637578290152305 0 -1 1
615 205 3 -0.398 0.9237504937917118 17.717753444095194 8.275480419328476 0 -1 1
1074 358 5 -0.35 5.527326026282484 16.999423921869003 9.404279754802145 0 0 0
1072 358 4 0.7 5.754262718619207 17.119866309577297 10.535470883177176 0 0 0
752 251 2 0.129 5.088169088628387 21.660112939298468 13.23754194392616 0 0 1
751 251 1 0.269 5.317077863797878 20.830716179308958 11.96031769299341 0 0 1
775 259 1 0.269 1.3333398250617503 17.969386262119396 11.578022641965058 1 -1 1
777 259 3 -0.398 3.009423709524709 18.83578078306716 13.505173997286157 1 -1 1
776 259 2 0.129 2.290391802100295 18.464101709749933 12.67843535505163 1 -1 1
396 132 3 -0.398 7.2878003812118255 19.276308422128498 8.697536619610215 0 0 0
1073 358 5 -0.35 5.981199410955929 17.24030869728559 11.666662011552207 0 0 0
148 50 1 0.269 0.11875078010088913 15.07216101234038 14.824537756089288 0 1 0
201 67 3 -0.398 3.02001718778224 20.682841155473668 9.010531469338806 0 0 1
753 251 3 -0.398 4.916190223127675 22.283237647939934 14.197118864919146 0 0 1
200 67 2 0.129 2.336169818211456 21.544588707411386 9.368851063919038 0 0 1
379 127 1 0.269 4.321509375484316 16.07637324294052 14.885691669981494 0 -1 1
953 318 2 0.129 11.452695063801333 15.86137838484541 7.69689380931775 0 -1 1
954 318 3 -0.398 11.220498590381723 16.992657241678536 7.626594834829939 0 -1 1
841 281 1 0.269 8.817706783714268 16.738764132306656 14.255679124455595 0 -1 1
843 281 3 -0.398 11.253410928490503 16.313386164236206 13.178549650623518 0 -1 1
551 184 2 0.129 10.541341654906525 20.400450912858773 9.762318615517012 0 -1 1
550 184 1 0.269 10.089134186088724 19.046920533670615 10.341165674554896 0 -1 1
793 265 1 0.269 13.239284459356211 15.797021144705262 11.020070905363914 -1 0 1
552 184 3 -0.398 10.881084538946904 21.417356528911174 9.32743157181128 0 -1 1
842 281 2 0.129 10.208505590890908 16.49587126214407 13.6406330029497 0 -1 1
242 81 2 0.129 8.809678432470035 20.99782387011333 13.568714527288293 0 -1 0
243 81 3 -0.398 8.554123917773424 20.22243826407087 14.38854258972656 0 -1 0
922 308 1 0.269 14.814555483340394 21.17825739568918 9.840683376687714 0 -1 1
241 81 1 0.269 9.149828780467251 22.029884227334925 12.477499993014366 0 -1 0
315 105 3 -0.398 17.86684463163226 15.039279390344912 11.08027843346455 0 -1 1
256 86 1 0.269 16.342114688396947 15.576346491164005 7.714767051735187 -1 -1 0
258 86 3 -0.398 15.093789970396324 17.890802726149975 8.313755144073196 -1 -1 0
588 196 3 -0.398 18.978504201121975 18.019069337768656 7.809951691929654 -1 -1 0
257 86 2 0.129 15.629315257280538 16.8979121574148 8.05679213968496 -1 -1 0
217 73 1 0.269 16.96774276091904 16.65818225700609 13.93703781027561 0 0 0
587 196 2 0.129 18.824793250866563 18.0786228260041 8.955148323871072 -1 -1 0
218 73 2 0.129 16.4035585024595 17.948166104162496 13.313148560020261 0 0 0
219 73 3 -0.398 15.979687601785677 18.917329293227404 12.844421376549196 0 0 0
36 12 3 -0.398 22.27656570257083 20.597130632496754 11.585749575927196 0 0 1
1029 343 5 -0.35 19.641750327992995 19.645110576713854 14.399607409588272 -1 -1 0
1027 343 4 0.7 19.387806249519656 20.380985270021988 13.539606920776556 -1 -1 0
586 196 1 0.269 18.620199591926777 18.157890217432435 10.479437704328973 -1 -1 0
1028 343 5 -0.35 19.133862171046324 21.116859963330114 12.679606431964846 -1 -1 0
161 54 2 0.129 21.927951360525586 15.026733934272054 11.266182914399558 -1 -1 0
537 179 3 -0.398 22.158336759926698 17.064648608349913 13.97757439825948 0 -1 1
296 99 2 0.129 28.027881721417618 22.37612206484532 12.005055315981464 -1 -2 0
162 54 3 -0.398 22.558871591757185 15.636029638062531 10.511631784809852 -1 -1 0
35 12 2 0.129 22.95303489442944 19.82157344080343 11.05702519131858 0 0 1
726 242 3 -0.398 23.610148246049782 19.971867284768653 7.536435121275348 0 0 1
34 12 1 0.269 23.853434683074425 18.789284698186556 10.353277955106595 0 0 1
663 221 3 -0.398 29.016309242558975 18.073930301724225 13.753545614762412 -1 0 1
508 170 1 0.269 27.90029537834267 20.254732291573752 8.711846606289372 -1 -1 1
343 115 1 0.269 29.716960122143004 15.196224654964338 9.404844956209066 -1 0 1
909 303 3 -0.398 26.487702514834897 16.58806077627488 11.133234387320988 0 -1 1
908 303 2 0.129 26.0484519048054 16.192726928596155 10.138538931179793 0 -1 1
907 303 1 0.269 25.463796814532778 15.666526301608055 8.814570908312518 0 -1 1
509 170 2 0.129 27.59967893294286 18.985605089412335 7.8929779370338125 -1 -1 1
661 221 1 0.269 26.649430241191716 19.33963528931592 13.489568954286895 -1 0 1
662 221 2 0.129 28.000929559732903 18.616911640487142 13.640300899830942 -1 0 1
297 99 3 -0.398 28.489618960682318 21.615633277170478 11.265390171678769 -1 -2 0
889 297 1 0.269 26.03079245232735 15.53948376134063 14.203162281225508 0 0 1
958 320 1 0.269 23.099107914502955 21.75108480251305 14.711880485530893 -1 -1 1
632 211 2 0.129 4.731329845533782 29.819943553983673 12.019254696240877 1 -1 1
633 211 3 -0.398 4.419963597696914 28.82430117057051 11.51885854911383 1 -1 1
374 125 2 0.129 5.007220972252888 27.146690401287508 7.905147671775592 1 -1 1
373 125 1 0.269 5.1056631936242844 25.812125892175366 8.667280665465434 1 -1 1
709 237 1 0.269 1.5855028873047725 23.139520984567298 14.448752361063073 0 -1 1
943 315 1 0.269 2.806345912818923 27.795689501647608 14.702589661141202 0 -1 0
199 67 1 0.269 1.425949464590878 22.691599277838428 9.845784664311054 0 0 1
503 168 2 0.129 0.5372995389107649 28.184628800005157 9.495059941048824 0 -1 1
502 168 1 0.269 1.4826258390776526 27.62507725973137 10.574346863045184 0 -1 1
857 286 2 0.129 4.465573316215332 25.372130686406926 12.384721911031278 0 -1 0
856 286 1 0.269 5.734188336823499 25.400270417577303 13.257318086255504 0 -1 0
858 286 3 -0.398 3.5124644987843925 25.350989342923732 11.72914153782711 0 -1 0
592 198 1 0.269 7.48940663212055 28.656748345085415 14.073057273074856 1 -1 0
153 51 3 -0.398 7.131777163041182 23.488287865066532 9.79851197004625 0 -1 0
923 308 2 0.129 14.656261894530143 22.5716609749676 10.477055598737449 0 -1 1
474 158 3 -0.398 7.671822737922811 27.237590373177046 10.925992088643671 0 0 1
473 158 2 0.129 7.7146422072625525 28.28261331970691 10.431277489838482 0 0 1
927 309 3 -0.398 9.098343848411641 25.548009864752846 13.65095277550941 0 0 0
926 309 2 0.129 10.105302033426174 25.738477412050347 13.113918021457465 0 0 0
151 51 1 0.269 9.561755601050063 24.49773109144937 9.206871738552813 0 -1 0
152 51 2 0.129 8.174226200036463 23.92133414349625 9.544701162542394 0 -1 0
392 131 2 0.129 11.669708313014155 29.43754826693385 9.72887803724708 0 -1 0
925 309 1 0.269 11.445592098181901 25.991995150026277 12.399109446487723 0 0 0
391 131 1 0.269 12.358437476125374 28.748587528206606 8.53615625897092 0 -1 0
350 117 2 0.129 14.74476238164305 27.669070311976192 12.95611749180898 0 -1 0
351 117 3 -0.398 14.340991750338615 27.914102310426436 11.8999084230009 0 -1 0
924 308 3 -0.398 14.537336126833091 23.618523274464437 10.955161222705984 0 -1 1
393 131 3 -0.398 11.152266987222157 29.955163575185423 10.624968360276641 0 -1 0
14 5 2 0.129 11.4530265345568 29.003305834257176 14.674584164017492 0 -1 0
15 5 3 -0.398 11.618697675101663 27.878197087344436 14.887498186124015 0 -1 0
472 158 1 0.269 7.7716361422523565 29.673568667724197 9.772798248559315 0 0 1
863 288 2 0.129 20.182230217396388 24.25041921276863 7.773921438853147 0 0 1
864 288 3 -0.398 21.25456257305013 24.669890523934303 7.660801422383511 0 0 1
209 70 2 0.129 16.357052508114776 23.61978263932301 14.896708750425566 0 -1 0
208 70 1 0.269 15.704961522158584 22.601729236846854 13.942798578690752 0 -1 0
429 143 3 -0.398 19.703359716031084 28.77897524887664 14.802353832569832 -1 -1 0
349 117 1 0.269 15.282192608271242 27.342925733226515 14.361961887629585 0 -1 0
525 175 3 -0.398 15.350985052579166 27.821760056677014 7.5810097270639405 0 -1 1
862 288 1 0.269 18.75492526691517 23.692090933429714 7.924487407187838 0 0 1
854 285 2 0.129 18.537784829600913 28.80948922257703 8.349691073911067 0 -1 1
855 285 3 -0.398 18.90418618218986 28.27119908775182 9.30606065705865 0 -1 1
103 35 1 0.269 18.54726445685286 27.291451796023104 12.107055187156902 0 -2 0
104 35 2 0.129 18.63715580789336 25.797390524252187 11.744701132119237 0 -2 0
524 175 2 0.129 15.633108408684404 27.067288628860002 8.411568741551738 0 -1 1
523 175 1 0.269 16.00862264239405 26.06306563937149 9.517066479072227 0 -1 1
105 35 3 -0.398 18.70469106318808 24.67490423111001 11.472465001159122 0 -2 0
646 216 1 0.269 22.19333951840314 24.172912591563236 11.151784569320528 -1 -1 1
39 13 3 -0.398 21.82389182832504 27.210850324770384 12.287365369353035 0 0 1
184 62 1 0.269 21.74587026262557 29.64986314080634 9.943918556056396 0 -1 0
960 320 3 -0.398 23.511677162416213 24.411000070759705 14.543219934651468 -1 -1 1
404 135 2 0.129 27.82054096518376 28.548290753843034 11.52707073330139 0 -2 0
159 53 3 -0.398 29.21587617809435 23.675464586401183 7.955647550715958 0 0 0
405 135 3 -0.398 27.835534479633154 27.417764197645884 11.772700333019328 0 -2 0
37 13 1 0.269 24.331224749675524 27.33504535811278 13.273096679196035 0 0 1
295 99 1 0.269 27.413296286268412 23.388354331931968 12.989570719807002 -1 -2 0
959 320 2 0.129 23.334686943715568 23.26990924192716 14.61557449800612 -1 -1 1
158 53 2 0.129 28.714352907366322 24.701448912769365 8.141334305672654 0 0 0
865 289 1 0.269 24.85065467351992 23.819324464539164 7.939760175658618 -1 -1 1
648 216 3 -0.398 24.57513040944876 22.928495536056623 11.380492556259576 -1 -1 1
157 53 1 0.269 28.046811129560645 26.067063314331158 8.388488672685021 0 0 0
504 168 3 -0.398 29.827077117291882 28.605019145522544 8.684193078224276 -1 -1 1
38 13 2 0.129 22.899525565812063 27.264129395433024 12.710239349882643 0 0 1
647 216 2 0.129 23.553353597828522 23.462344454566505 11.282377932274231 -1 -1 1
45 15 3 -0.398 1.6714443991396086 17.4644145655474 16.80546977040082 1 -1 0
44 15 2 0.129 1.8524359365343088 16.95521043069703 17.828505552982236 1 -1 0
1 1 1 0.269 4.382060464178186 19.901066853167233 16.683836789503076 0 -1 0
21 7 3 -0.398 4.803394238506051 16.7711442846209 22.259401925030446 0 -1 0
20 7 2 0.129 4.305909830076088 17.721106514648618 21.824971234481527 0 -1 0
19 7 1 0.269 3.6437438931857287 18.985533337676006 21.246731594511484 0 -1 0
2 1 2 0.129 5.135286551072456 19.20860135070448 17.8348111549533 0 -1 0
3 1 3 -0.398 5.701184331940419 18.68835291801006 18.699536700944154 0 -1 0
43 15 1 0.269 2.0933408350544855 16.277445203670606 19.190195358665363 1 -1 0
527 176 2 0.129 5.416367844373803 22.449227238873235 22.041709175775335 1 -1 1
322 108 1 0.269 6.549708526717422 15.104135602154713 19.883815923387804 0 0 0
281 94 2 0.129 0.8914138500616893 20.9162461240096 17.292408369370026 1 -1 0
282 94 3 -0.398 1.3707880558056122 21.457061772368025 18.195939113372688 1 -1 0
280 94 1 0.269 0.2533531094863638 20.196405070879113 16.08978317856269 1 -1 0
436 146 1 0.269 0.17951453507808723 21.227694648626287 22.334950188160555 1 -1 0
645 215 3 -0.398 6.740863433074074 22.19788221189499 18.13251663395154 0 -1 0
88 30 1 0.269 7.799844944451195 20.04053482695616 20.989829912956736 0 -1 0
89 30 2 0.129 9.148107193628435 19.509487742843056 20.468506690859822 0 -1 0
90 30 3 -0.398 10.161054870445358 19.110512758220416 20.076837231141557 0 -1 0
97 33 1 0.269 10.476568417355235 18.776594308312994 16.862589281258145 0 -1 0
846 282 3 -0.398 9.260781068401018 15.434459286379 17.25008343687929 1 0 0
845 282 2 0.129 10.064373015090068 15.591857149286202 18.067466392395893 1 0 0
98 33 2 0.129 11.359361081539424 19.898152728654264 16.284329977983628 0 -1 0
704 235 2 0.129 14.533432975761476 15.38889190715492 16.00478968517849 0 0 1
25 9 1 0.269 13.35612073434251 19.244604038882883 20.686574594085318 0 -1 0
27 9 3 -0.398 13.468844750207186 18.101229553083744 18.246534208870898 0 -1 0
26 9 2 0.129 13.420486690750224 18.59173169623154 19.293299772717056 0 -1 0
99 33 3 -0.398 12.022602063657018 20.740778113287284 15.849884514419594 0 -1 0
703 235 1 0.269 13.20815898674103 16.141634848507447 15.784274564905031 0 0 1
323 108 2 0.129 7.787213253893052 15.547383285225946 20.68613352987014 0 0 0
324 108 3 -0.398 8.716948948271108 15.880394693871024 21.2889137056494 0 0 0
844 282 1 0.269 11.13397681621465 15.80135819412379 19.15542641961765 1 0 0
493 165 1 0.269 13.071955262147213 15.604826299490433 22.03553515736603 0 -1 0
377 126 2 0.129 16.646287939942987 16.652793058500496 20.622207960347286 0 0 0
376 126 1 0.269 16.455237377717516 15.817023953312919 19.34291530990048 0 0 0
73 25 1 0.269 16.125073428186653 20.237269522884937 17.00128017721669 -1 -1 0
665 222 2 0.129 19.901831744577894 20.47123624365066 21.437818789191393 0 -1 0
74 25 2 0.129 17.067563393985676 19.053449075658524 17.287430160787068 -1 -1 0
664 222 1 0.269 18.557416983745057 19.86189581474845 21.876969324383573 0 -1 0
49 17 1 0.269 20.438321272008665 19.62245746974537 17.34717799516735 -1 -1 0
666 222 3 -0.398 20.91188880839841 20.9290329165337 21.10788556242688 0 -1 0
48 16 3 -0.398 21.86857671695728 17.00056048170257 19.87064043135266 -1 0 0
75 25 3 -0.398 17.775654881277543 18.164046311086466 17.502414271820136 -1 -1 0
50 17 2 0.129 21.88159203618816 19.948282295193824 17.774270121512423 -1 -1 0
489 163 3 -0.398 16.391278889471 22.068292923014813 20.452223109461954 0 -1 0
378 126 3 -0.398 16.789823979225375 17.2807053018135 21.58333886720894 0 0 0
536 179 2 0.129 22.390169863258894 16.76504971908145 15.070800320815396 0 -1 1
47 16 2 0.129 22.63708702394652 17.642639275146433 20.450102018570586 -1 0 0
535 179 1 0.269 22.698746336147043 16.366275052293698 16.525915204770552 0 -1 1
46 16 1 0.269 23.65999616203073 18.497264462617093 21.22138191858408 -1 0 0
893 298 2 0.129 27.588746703949177 19.26541867312805 19.268673661936624 0 0 0
894 298 3 -0.398 28.632376006358427 19.143550383873844 19.753065031829937 0 0 0
892 298 1 0.269 26.19964633600601 19.427628842057583 18.62393493277871 0 0 0
51 17 3 -0.398 22.965919486938606 20.193074063404122 18.09514388137038 -1 -1 0
693 231 3 -0.398 26.943401043441906 21.999128838736702 16.086762451299283 0 -1 1
368 123 2 0.129 24.65493255067489 21.722289631076663 21.206698605764412 0 0 0
369 123 3 -0.398 25.326192245597248 21.279363127575703 22.03848916502167 0 0 0
891 297 3 -0.398 25.76900608877338 16.769800419660623 16.58886926661206 0 0 1
890 297 2 0.129 25.88131117688311 16.24200050357748 15.565412469395806 0 0 1
327 109 3 -0.398 25.40457201375591 15.368076153575798 22.05572146660357 -1 0 0
202 68 1 0.269 27.72554714739048 15.171343484318985 19.838010865912434 0 0 -1
367 123 1 0.269 23.76146675103753 22.31183744040379 20.099561647029606 0 0 0
1044 348 5 -0.35 3.6048860596868497 23.13607890850171 17.638566574281985 1 -1 1
1042 348 4 0.7 3.91523529780205 24.027026255427575 16.963662006651813 1 -1 1
526 176 1 0.269 5.092358473834516 23.505142821407738 20.968554848400487 1 -1 1
364 122 1 0.269 4.605304715385557 27.35905402065209 18.962746150355166 0 -1 0
945 315 3 -0.398 2.017886829047398 28.25887660757473 17.23983205754674 0 -1 0
462 154 3 -0.398 0.7918322144829548 28.706510116532773 22.003620488628652 0 -1 0
461 154 2 0.129 0.39569681861329353 29.042390536786225 20.969739406768113 0 -1 0
604 202 1 0.269 1.3156495558469237 24.155732683036042 19.499654651842217 0 -1 1
365 122 2 0.129 5.0888113484326825 28.737796764792524 19.449459393733413 0 -1 0
366 122 3 -0.398 5.452069253910297 29.773644397890244 19.815126421388367 0 -1 0
644 215 2 0.129 7.243971052826389 22.659698346364525 17.198569322327145 0 -1 0
944 315 2 0.129 2.3561319754781187 28.060171571772848 16.151367299429864 0 -1 0
711 237 3 -0.398 0.8025386055962166 25.12149012951471 16.101802342775812 0 -1 1
1043 348 5 -0.35 4.225584535917251 24.917973602353445 16.28875743902164 1 -1 1
435 145 3 -0.398 7.166953353341037 25.97101626984072 18.50196068758207 0 0 0
593 198 2 0.129 7.218071356803376 29.00502514675829 15.548415005214737 1 -1 0
605 202 2 0.129 0.2040953969486779 25.21298873767372 19.36453623426362 0 -1 1
710 237 2 0.129 1.1384265084278076 24.271234919761596 15.392651868603906 0 -1 1
594 198 3 -0.398 7.014217516841055 29.266685055547576 16.656849353322425 1 -1 0
643 215 1 0.269 7.913621644372252 23.27438879328163 15.95545881247272 0 -1 0
434 145 2 0.129 8.06211813761093 26.41519619563734 17.918837027865063 0 0 0
433 145 1 0.269 9.253607997399728 27.006412345790135 17.14268280490552 0 0 0
236 79 2 0.129 12.740590862460484 23.584276930319234 20.417440044262577 0 -1 0
387 129 3 -0.398 11.270685047364362 27.49417131219026 21.28326527657856 0 -1 0
235 79 1 0.269 11.577842934786624 22.680939905209364 19.966220058273887 0 -1 0
237 79 3 -0.398 13.614161870459611 24.262952864119317 20.756441033735904 0 -1 0
875 292 2 0.129 12.78045892030658 24.819220335642726 17.051107673158423 0 -1 0
386 129 2 0.129 11.38105515662065 26.819205595950514 22.216479464685627 0 -1 0
876 292 3 -0.398 12.11155834495384 24.039206591419205 16.51931863687132 0 -1 0
511 171 1 0.269 7.564969335498994 26.820803267343535 21.783040813663067 0 -1 1
874 292 1 0.269 13.670784664509885 25.857440876787255 17.758934048164594 0 -1 0
786 262 3 -0.398 8.729779787927894 23.940653959941628 21.613941971956958 0 -1 1
837 279 3 -0.398 14.59790777995315 28.82904051911397 16.88583159231387 0 -1 0
836 279 2 0.129 14.546154976463509 29.252649674306408 17.96125054833397 0 -1 0
835 279 1 0.269 14.477270518923284 29.816485542064715 19.392663851938952 0 -1 0
488 163 2 0.129 16.713285625913016 22.91404085641628 19.73134094514305 0 -1 0
183 61 3 -0.398 19.895666880293064 22.601112243118667 15.346639388620446 0 -1 0
210 70 3 -0.398 16.846967618992256 24.384644838456072 15.61338022360555 0 -1 0
181 61 1 0.269 20.022711049045228 25.285956024316594 15.124642429740343 0 -1 0
487 163 1 0.269 17.14188577640628 24.03975547822981 18.771826223404844 0 -1 0
1063 355 4 0.7 20.457740067975184 26.356611055874115 19.413373580058494 0 -1 0
94 32 1 0.269 15.653197965886067 26.720963007402744 21.049692584003395 0 -1 0
95 32 2 0.129 16.98076402020682 27.20213945807649 20.43517033482785 0 -1 0
96 32 3 -0.398 17.97816267270624 27.5636467005632 19.973480567103103 0 -1 0
1064 355 5 -0.35 20.20272529649302 25.8593644947954 18.3968533767073 0 -1 0
1065 355 5 -0.35 20.712754839457347 26.85385761695283 20.42989378340969 0 -1 0
182 61 2 0.129 19.95016821631318 23.752897283847624 15.251403763324086 0 -1 0
452 151 2 0.129 19.473741367669945 24.175429491274517 22.28198392856768 0 0 1
453 151 3 -0.398 18.691997441212166 24.705988654356005 21.614127351212765 0 0 1
428 143 2 0.129 19.059022463862924 29.536657390309426 15.393451352460906 -1 -1 0
692 231 2 0.129 27.25460247644378 22.91641182260961 16.719529861645245 0 -1 1
460 154 1 0.269 29.86842930812126 29.489456956138277 19.593614198414418 -1 -1 0
1050 350 5 -0.35 23.086356659732623 26.420405861471753 17.049706274437884 -1 -1 0
562 188 1 0.269 22.911381313587466 29.496886851585124 16.1670423122374 0 -1 1
873 291 3 -0.398 26.594070244092595 26.993472648131995 16.29998301365561 0 -1 1
871 291 1 0.269 28.864268002364685 27.82383651377647 15.103944975396232 0 -1 1
872 291 2 0.129 27.56797413965092 27.34969474399802 15.786888460349678 0 -1 1
1048 350 4 0.7 23.68034872364721 25.486398011537794 17.396697289116876 -1 -1 0
691 231 1 0.269 27.668820459868915 24.137341636926188 17.56176133263297 0 -1 1
1049 350 5 -0.35 24.274340787561798 24.55239016160384 17.743688303795867 -1 -1 0
59 20 2 0.129 24.422933060735986 27.42156775747775 19.584379746732044 0 -1 0
60 20 3 -0.398 23.566017015141984 26.736989005817474 19.95274888710702 0 -1 0
606 202 3 -0.398 29.36898620094526 26.007303838463194 19.263021942615286 -1 -1 1
58 20 1 0.269 25.56351275841513 28.332761601519945 19.094069914253673 0 -1 0
361 121 1 0.269 26.588191549172624 24.732473439881193 21.439008977836238 -1 -1 -1
362 121 2 0.129 26.885024189936086 26.096553518118267 22.08922119206717 -1 -1 -1
929 310 2 0.129 2.832030526241449 15.639199940937726 24.741241128458263 0 -1 1
930 310 3 -0.398 3.155758417569922 16.153064391049536 25.726021601095525 0 -1 1
528 176 3 -0.398 5.659795663668581 21.655919233034 22.847968628225136 1 -1 1
370 124 1 0.269 2.1849436092997445 15.537926181141605 28.594819108566785 1 0 -1
70 24 1 0.269 5.642138346472647 18.289466246380652 25.289360545375324 1 -1 0
71 24 2 0.129 4.882538284018941 19.23040479896439 26.24290256614928 1 -1 0
72 24 3 -0.398 4.311851743591053 19.937330711522435 26.9592974479905 1 -1 0
660 220 3 -0.398 1.8111798518542936 21.306898176248232 29.776252096166292 0 -1 0
134 45 2 0.129 1.2213786354372718 18.80094923386845 24.644059655411105 1 -1 0
135 45 3 -0.398 1.678609772895535 18.87601848479266 23.583893020157607 1 -1 0
11 4 2 0.129 6.379541605121297 16.569086205333623 28.500503728214117 0 0 -1
133 45 1 0.269 0.6127909503156425 18.70102991976017 26.055171685048435 1 -1 0
12 4 3 -0.398 5.807894249688 15.584332333974785 28.295252385055868 0 0 -1
659 220 2 0.129 2.963462430669303 21.343490207346857 29.678503020370968 0 -1 0
658 220 1 0.269 4.4971834085216065 21.392195244418485 29.548396212484366 0 -1 0
371 124 2 0.129 2.824519644534085 16.426919142104115 29.677516670451983 1 0 -1
10 4 1 0.269 7.1404205397516165 17.8798216953013 28.77369912014472 0 0 -1
334 112 1 0.269 0.2592677797668471 22.21804911454495 27.29407816640013 0 0 0
500 167 2 0.129 8.734571763600984 21.073152105039515 29.89439761504429 0 -1 0
735 245 3 -0.398 9.041428338654704 17.319458769702397 26.19474075511434 0 -1 0
734 245 2 0.129 9.633921178343948 16.962790788770405 25.267169094111996 0 -1 0
261 87 3 -0.398 13.601934876766531 17.639471032367553 24.568482806088006 0 0 0
733 245 1 0.269 10.422546047074663 16.48805553325159 24.032544757082086 0 -1 0
260 87 2 0.129 14.439702540552116 18.419778159789466 24.4014045956312 0 0 0
628 210 1 0.269 11.366031416249177 19.79623654346089 25.86639476378202 0 -1 0
629 210 2 0.129 11.247208249510795 20.30543704530884 24.417879695181075 0 -1 0
806 269 2 0.129 13.83248557533084 22.36481663727042 28.729882914415445 0 -1 0
937 313 1 0.269 12.744476113059436 18.032517859606806 28.76312921973965 0 -1 0
807 269 3 -0.398 13.597318636060004 22.21028940309953 27.60762320981331 0 -1 0
630 210 3 -0.398 11.157936558656052 20.687998721047858 23.329612205329585 0 -1 0
499 167 1 0.269 9.634655964071827 22.042878934962165 29.106312399226834 0 -1 0
936 312 3 -0.398 10.847716556635984 15.266027456562988 27.94991271498423 0 0 0
938 313 2 0.129 12.616713120279085 18.94394608981202 29.997866114330193 0 -1 0
541 181 1 0.269 22.09866180749044 15.468317899743408 23.882317322673952 -1 0 0
259 87 1 0.269 15.55479519589334 19.458389202338946 24.179018732101827 0 0 0
882 294 3 -0.398 18.90628806054202 17.967235741175564 24.546847520105896 0 0 0
881 294 2 0.129 18.477761813401273 16.895413680401195 24.468033019228436 0 0 0
683 228 2 0.129 16.814543073330647 16.03546177897767 28.6284808499202 0 0 0
684 228 3 -0.398 16.393145998934536 16.933480610678213 28.032967891537965 0 0 0
792 264 3 -0.398 18.15413653497678 21.1185946107145 25.362228176551014 0 -1 0
880 294 1 0.269 17.90738115601428 15.468787946959079 24.36312867061021 0 0 0
791 264 2 0.129 18.40162483742336 20.48481897237424 26.298031029932744 0 -1 0
176 59 2 0.129 21.535168701330477 16.50654667269337 28.813155890288698 0 -1 0
175 59 1 0.269 21.448468604722716 16.156673981223673 27.31593439932221 0 -1 0
790 264 1 0.269 18.731038826850963 19.6412455211694 27.54361131879002 0 -1 0
675 225 3 -0.398 21.774806236387374 20.478640565386264 27.087038581508676 0 0 0
674 225 2 0.129 22.164151161928864 20.45163235102623 25.99785077157273 0 0 0
177 59 3 -0.398 21.60030637131436 16.76940557141444 29.938016452008323 0 -1 0
61 21 1 0.269 25.653476440571954 15.965559646357693 28.06007784614658 0 0 0
766 256 1 0.269 28.289561637619116 17.50440025412278 22.628458702613834 0 0 0
543 181 3 -0.398 23.566029572941535 17.633314599340263 24.540671430771287 -1 0 0
542 181 2 0.129 22.936535874525923 16.704541450866568 24.258240691776624 -1 0 0
673 225 1 0.269 22.68238036273604 20.415683647383663 24.548110730689967 0 0 0
437 146 2 0.129 29.068064052655775 21.865936851575817 23.188721068136953 0 -1 0
767 256 2 0.129 28.040486311381027 17.069991010668108 24.084772573680276 0 0 0
768 256 3 -0.398 27.853356342252802 16.74361991022846 25.17889929369578 0 0 0
577 193 1 0.269 26.71364494354859 20.618916602420466 26.13120016371393 0 0 0
579 193 3 -0.398 27.637019532993964 18.945812980761662 28.034332486691138 0 0 0
578 193 2 0.129 27.24089628494491 19.66356636980847 27.217897893556312 0 0 0
438 146 3 -0.398 28.233032748654075 22.345447389765823 23.830158021469863 0 -1 0
447 149 3 -0.398 1.7748250123884137 24.20345228114967 22.864042239252925 0 -1 0
446 149 2 0.129 1.6026681799875 25.03132001103722 23.653754874880228 0 -1 0
679 227 1 0.269 4.892875475599225 23.453190611265224 25.902793872556533 0 -1 0
681 227 3 -0.398 4.9499999927884915 25.248259986786945 23.890762131604347 0 -1 0
680 227 2 0.129 4.925493850264211 24.47818387722868 24.75391405013667 0 -1 0
560 187 2 0.129 3.83735544751897 27.981065144191298 25.312579011630692 0 -1 1
559 187 1 0.269 4.21414760332184 28.414350616932346 23.883631367230503 0 -1 1
359 120 2 0.129 2.287649017379204 25.47018467959076 28.85587977170655 1 -1 0
360 120 3 -0.398 2.685758675065081 24.384907610105657 28.807595375610003 1 -1 0
358 120 1 0.269 1.7577537080998233 26.91471941339116 28.920147680080518 1 -1 0
445 149 1 0.269 1.3735225257978685 26.133235571993854 24.704884917115358 0 -1 0
561 187 3 -0.398 3.5542719902047355 27.65553833122936 26.3861455210924 0 -1 1
813 271 3 -0.398 7.428234578336153 25.14597869071631 29.622027001434983 0 -1 0
442 148 1 0.269 7.414571858066465 26.837184039217167 26.777681842376076 0 -2 0
1051 351 4 0.7 8.704196906985938 29.83288142665315 27.400848690910827 0 -1 0
784 262 1 0.269 8.696014551428 23.051298433274194 24.15986334858789 0 -1 1
385 129 1 0.269 11.527960920021416 25.920806976236417 23.45861416622831 0 -1 0
513 171 3 -0.398 8.022917932386717 28.34573071590577 23.959893670248345 0 -1 1
512 171 2 0.129 7.8264601917122265 27.691544190882965 23.026034287575314 0 -1 1
785 262 2 0.129 8.71529466422364 23.559124725846626 22.706129970756358 0 -1 1
18 6 3 -0.398 10.720907018512206 28.485181125655465 26.586629836191538 0 -1 0
1053 351 5 -0.35 8.79204433748889 29.063970588365393 28.26494298652736 0 -1 0
443 148 2 0.129 8.363289765936338 25.63067956881385 26.903702849290134 0 -2 0
17 6 2 0.129 11.547819342934051 27.730668037282953 26.87916189801489 0 -1 0
444 148 3 -0.398 9.076060298017792 24.724234327088762 26.99838226812102 0 -2 0
16 6 1 0.269 12.64846323196572 26.726389596406836 27.268530415912874 0 -1 0
619 207 1 0.269 14.998433705992488 23.154108721657668 23.61438506248969 0 -1 0
672 224 3 -0.398 14.59130451127243 29.81641793633348 24.401931540219977 0 -1 0
780 260 3 -0.398 18.79814123894133 29.978366914412817 23.68437104571207 0 0 0
262 88 1 0.269 22.440418045399515 23.484859338248565 28.455220962505795 -1 -1 0
555 185 3 -0.398 17.639767159112974 29.710114236388282 29.06485351486047 0 -2 0
545 182 2 0.129 16.16059548786514 25.972432084066394 29.43662507541141 0 0 0
546 182 3 -0.398 15.269701779254639 25.784775788817736 28.72266253100784 0 0 0
553 185 1 0.269 15.822381398571448 29.16939739319099 27.146900623660652 0 -2 0
621 207 3 -0.398 16.412365758703405 25.404607958899238 24.0724880350715 0 -1 0
636 212 3 -0.398 21.572447021836208 28.935231210270572 26.111111912613243 0 -1 0
554 185 2 0.129 16.860117427949998 29.478149317004057 28.24206096939581 0 -2 0
534 178 3 -0.398 20.4554179737645 25.32362811345289 26.444891479717015 0 -1 0
451 151 1 0.269 20.514264830716606 23.469240112583513 23.170920081658927 0 0 1
532 178 1 0.269 18.08001692709945 24.09276089044988 26.78583831845254 0 -1 0
533 178 2 0.129 19.436382374583385 24.795592007774555 26.59115603011264 0 -1 0
620 207 2 0.129 15.805795723484072 24.43915463391278 23.875964067968365 0 -1 0
779 260 2 0.129 18.951525106314055 28.83772241260097 23.802914327745615 0 0 0
778 260 1 0.269 19.155683408607914 27.31949204718157 23.960698817228476 0 0 0
635 212 2 0.129 22.268111576121974 28.444271825686428 26.89447562800994 0 -1 0
899 300 2 0.129 28.9539525005075 29.841287954465447 25.15760497469491 0 -1 0
363 121 3 -0.398 27.108034167444742 27.121385109365214 22.577724784187424 -1 -1 -1
833 278 2 0.129 24.01353374299028 28.141702888662074 23.95864495541744 0 -1 0
32 11 2 0.129 24.656779940994255 23.940266548107907 24.81216907088228 0 -1 0
832 278 1 0.269 23.10632221420246 27.461228471929786 22.91676117581026 0 -1 0
918 306 3 -0.398 26.418712058120438 29.405337407677507 28.203167391253523 0 -1 0
263 88 2 0.129 23.949653383832956 23.214874869113938 28.310593580410284 -1 -1 0
264 88 3 -0.398 25.083539933552107 23.01203588808227 28.20193521606969 -1 -1 0
33 11 3 -0.398 23.753369633512246 23.49273094382055 24.24453300857518 0 -1 0
31 11 1 0.269 25.859244827357518 24.535949202042673 25.567708859951367 0 -1 0
634 212 1 0.269 23.194060939648402 27.790790881641854 27.937155076333983 0 -1 0
574 192 1 0.269 26.848092672274735 26.285923273086496 29.015844611240762 0 -1 0
336 112 3 -0.398 29.113175469138493 24.61489204223197 26.829938752524352 -1 0 0
335 112 2 0.129 29.60484354603765 23.586657979445953 27.029052323845924 -1 0 0
898 300 1 0.269 28.852308599946586 28.58861568956095 26.04759413991882 0 -1 0
834 278 3 -0.398 24.695120586371775 28.652942434220027 24.741410885940496 0 -1 0

Velocities

590 -0.0006231821210852214 0.0027799471563743593 0.0009155590549717394
431 -0.0036485798335823424 -0.0010967601782277527 -0.0006698704777832452
432 -0.00929113625578289 -0.0023157605399419857 0.002199595712467961
430 0.0038618237015852104 0.0005257640715906779 -0.004489211820036351
591 -0.0013356373717646264 0.0049990310209978815 -0.000865948029687212
127 -0.004133093246428422 0.0038889191211207976 -0.002635382368308767
128 0.00130043519200255 0.0013354081033481672 -0.00018003883515646638
347 7.741932313423936e-05 -0.001038392127358539 -0.001654646842945241
838 0.0012578176319682447 -0.0046961178382715334 0.0023293582021721645
80 -4.828170809724496e-05 -0.0011653118454162388 0.0009734674599124699
348 -0.00037625661110655506 -0.0007579617160846242 -0.0015549522609350057
346 0.0006812749313717707 -0.0014116530032114594 -0.0017873431750936959
729 -0.0010060460962708804 -0.00011987183042387758 -0.0016250873118653475
484 -0.002061377418364806 -0.0003584497827670291 0.0019693205103627526
839 0.0018862642394460642 -0.0002916157941858885 -0.00031101606041950306
902 0.00518749933282691 -0.005269172966044237 -0.0016553331329705794
913 0.0013072579474465358 -0.004504744752311985 -0.004004533949508558
840 0.0023584153594797303 0.0030174808714031297 -0.0022947258148471187
584 0.0006678040040457089 0.0059619442532288566 0.0007717682844102148
585 0.00010527321153568233 0.005599818575122186 0.0007841270504199398
1068 -0.00271252582565898 -0.0012147840888809128 0.0005488068458679354
859 -0.0011725849953543779 0.014178216708178058 -0.00299393319068968
583 0.0014165485334021821 0.00644394385935182 0.0007553184143540573
1066 0.000133181805909009 0.00034616281892249634 0.001770530331517309
860 0.0005809684890860872 0.006426944226130463 -0.0036310307814857528
714 -0.0036497622501933513 -0.002603130743461262 -0.00031723193960110207
901 0.003263892939187293 -0.0015839503387020358 -0.002727408027532734
713 -0.003609536613724933 -0.0016889267541957257 -0.0018436253156760315
861 0.0018984109446040461 0.0006034232769557453 -0.004109681374051354
687 -0.003577153349632064 0.003675651297355355 -0.0016720626871601554
686 -0.0012551693126023038 0.002913239479093035 -0.0015387794490352563
1067 0.0029788894374769975 0.0019071097267259055 0.0029922538171666827
914 -0.0011032246741723415 -0.0027144306541194768 -0.00016356889611875727
311 -0.0028960208014578884 0.002190335468206926 0.0005945278769987719
312 -0.004035866351351788 0.006337431765845777 0.003916412493563052
712 -0.0035559951442682616 -0.00047209516952076555 -0.0038752984350843185
685 0.0018354576684053412 0.0018984476034456894 -0.0013613756575811982
699 -0.004971944411490571 -0.0004664407580684515 -0.008460384463172285
402 -0.0015423698769668698 -0.006147195992315541 0.0024747718931696708
401 -0.00012121712559671886 -0.00674229370580428 0.002469787077187392
400 0.0017703777206522337 -0.007534385735858439 0.00246315214493786
41 0.0009438330734678427 0.00047481455304189174 -0.0020310396014806445
697 -0.0010537478821129676 -1.0223240240249962e-06 0.002230305103092476
698 -0.0032910569867631466 -0.00026677849325961936 -0.003874130170191794
40 0.00039438357091286223 0.0005716277094909005 0.0006470035915904099
719 -0.0010509878746305366 4.54286634776582e-05 -0.0010081386479766055
948 -0.009321191249596874 -0.004103864127879863 -0.003417478189077936
42 0.0013566337711666187 0.0004020789543331232 -0.004043049974456753
216 -0.001194278895912725 -0.0019596440152481703 -0.0034026671759437516
888 0.004224343424506909 -0.005426638936933083 0.002857701213177517
678 -0.00394827927358823 0.0016490763635312136 0.0010592136797190595
81 0.003358437103766451 -0.003755470054227095 -0.0015562080646106386
215 0.0003344790415430903 -0.0018664061256717798 -0.002184151325120408
589 0.0003251161382460361 -0.0001737167602377551 0.0032867957968687003
214 0.0023692994595914604 -0.0017423038353108133 -0.0005622719731169907
567 -0.0005823629608495628 0.009765034733146785 -0.0003290399715727974
607 -0.0026138652229389407 -0.0006594202103905559 -0.007790711078682725
268 0.004887114829995277 0.0013775471168119664 0.003931649087924582
608 0.0008704096020939493 0.0010307206245524561 -0.0027679770082867745
609 0.003488140753108918 0.002300521238857023 0.0010055965757704627
384 -0.0006830492662219562 0.0024548857074930784 -0.003814707826475033
269 0.0067556730486738915 -0.00112348217305069 0.002956732789881758
549 -0.0019187463461398562 -0.0010688395237227943 0.004209826494656831
548 -0.0008081855058393766 -0.00041887999455297506 0.0057308444301039825
490 -0.006109275236626401 0.0010937274582692913 0.0030322467642473995
566 0.0015342392397669877 0.006991914766014644 0.0009134058476653364
238 -0.002151989258744218 0.0016873212353657136 -0.0015750443191923287
239 -0.0025662553743339774 0.00034833080322607066 0.0010329236677827133
240 -0.0028774929689686186 -0.0006576509694918304 0.0029922866294256564
498 0.00052137535054338 0.0012644859228798004 -0.0029383389852786247
518 0.0005929016846361982 0.00013226075110836947 0.000585243429348551
76 -0.00021096026660162874 -0.004453344119896079 0.0018484268326165564
497 0.0022731367857785015 0.0011926751412539198 -0.0015132464442780052
77 -0.00027752049616812217 -0.004432914683060009 -0.0008732403836901861
78 -0.00032752711019957184 -0.004417566073696806 -0.002918025428668686
496 0.004604781219885759 0.0010970929427199033 0.0003835923743399389
469 -0.00014123087981871008 0.00114733502307609 0.0038042161585964338
4 0.003094958398397258 0.006161920394477931 -0.0024608969744598867
470 0.005005463094772222 -0.0015858234051413637 0.0012028412724788733
471 0.008872167593864236 -0.0036392417827047488 -0.0007515683010523076
319 0.0029475139776176744 0.004342519614090705 0.004549079033643818
517 0.0008011216805775862 0.0004521334270033878 0.0003781838079340524
1076 -0.006172483399219273 0.00279658965206919 0.0018192345683273941
568 -0.0022683951764091046 -0.001831891896687809 -0.002427942680874327
708 0.0015132992085914244 0.004641046557831693 0.0006310966572133759
1077 -0.00010856377216552802 0.0027130891634797394 0.0028054864265257074
467 0.0011844560310063973 0.00022180937570056566 0.0008725529495552745
308 0.0008243579216594119 -0.00025379542678547243 0.00027814191225674874
466 0.001886176706811421 -0.000804391181526465 0.0015337286442417657
307 -0.0004742452576222124 -0.00038662141424714383 -0.008935103181090262
468 0.000657254198599636 0.0009927925216172374 0.0003758125088070475
571 0.0019060513152851658 -0.002747173047358323 0.005339961832524956
406 0.0037408771721046353 0.00852270578352305 -0.001492141422716055
1075 -0.003140523585692401 0.0027548394077744646 0.0023123604974265508
309 0.0017999968037560672 -0.00015400343490680853 0.0072000409856350055
569 -0.0024252761929566538 -0.0014841948495950717 -0.0012687276069560877
572 -0.002113253557777836 -0.003181270752940269 0.0023634704276776926
720 0.0010086252075108292 0.0015811286378452308 0.00017053033181068798
616 0.0004869486137836904 -2.063493906236363e-05 0.000757155825162751
457 0.004410748503696995 -0.003642283936812915 0.006128729096742326
732 0.00853760215322183 -0.0007067132249002983 0.0021671744759525647
458 0.004833829198267105 -0.003935702210371685 0.0023317823011224704
618 0.003472615706689064 -0.0010920314553535026 0.001821547349095312
759 -0.0008735783518679123 -0.0005664779112924171 0.004239739378649266
886 -0.0021896299957485862 0.0024393676942440915 -0.0015950161313906643
166 -0.004826991987188245 -0.003324161865883379 0.0066367942468944525
617 0.0021917789152572816 -0.0006324075141785529 0.00136492851587693
887 0.001472779743663148 -0.0020521600076516414 0.0009475069352148117
154 -0.0037565311884965643 -0.0018996567983013272 0.0008138058704085974
731 0.003775985708985502 -0.0033654559721850922 -0.0008799843694224749
167 -0.0017013076542726584 -0.0021830458013737068 0.0032950859459873185
168 0.0006470149257165251 -0.001325726784076504 0.0007844648393967014
459 0.005151689174642182 -0.004156146978233688 -0.0005208588953269895
905 -0.003730871572901528 0.0005964641775776477 0.004090867391465402
781 0.0012420947856774734 0.00031417387849388707 -0.0011985959255999198
730 -0.00256186158930657 -0.006904318401587535 -0.004935839703802384
383 -0.002523681939747318 0.001933017764434411 -0.0015306915427917625
491 -0.004485674164006048 0.00047392973836335244 0.0005150443028266197
492 -0.003265864786719194 8.276516330122199e-06 -0.001376126637344714
637 0.0031880687209520633 -0.0028710726420268463 -0.004076233747916129
382 -0.0049736165268078735 0.0012383966474850897 0.001509399275593926
638 0.0021102550047487605 -0.002823507346634855 0.0010909791070757386
420 0.00043142666552122727 -0.0016599183906920241 0.0013397443392915982
418 -0.002086044910891689 -0.0011534054469846448 -0.0053156445975651246
419 -0.0006485565061175371 -0.0014426267793203375 -0.0015153854345101214
906 -0.005151676758665087 0.002952865176510081 0.005562113222629758
255 0.0030085958812850417 -0.001934508676572181 0.004312946589685242
79 -0.004582721613257203 0.0022822626071064105 0.004340537734558602
174 0.003163159180366836 2.936986845651938e-05 -0.0002053862598469171
173 0.0006482566390067876 0.000874941115434426 -0.0024760003871054366
172 -0.0026991503736937005 0.0020004205625787424 -0.005498252553032929
603 -0.002923798547182408 0.0018267249952627445 0.001396277270578083
602 -0.004167327948622051 0.0015649285857341304 0.0009972750298093609
601 -0.005822501049933234 0.0012164700976839454 0.00046619166698841027
631 0.0016559555310664996 -0.00046233849139686983 -0.0008122402109558404
284 -0.0012084962812260898 -0.0019931226313195135 -0.001746469193504239
285 0.0013025312553435735 -0.004843083204891711 -0.0021528415645973237
475 0.004670136618695874 -0.0038528842385087267 0.008368205498092054
476 0.0027387678369422265 0.0015546250909920052 0.003936227365225704
456 -0.004571109775859527 0.0030581185320324106 -0.005511122081844852
932 -0.00132461325147371 -0.002989158880921593 0.0017317283989911917
933 -0.002665186495195375 -0.003150491867588507 0.0007184694255447778
477 0.0012877329794818556 0.005617279827506517 0.000606487949818968
283 -0.004550745552027544 0.0018002561787938758 -0.001205575977010416
13 0.0011612794626675643 -0.0003008561581703498 0.0003189087491753963
828 0.003512168911826742 0.002744648961591702 -0.004749969560909823
827 -0.0001771167457480748 0.0012452480634752524 -0.004477982367723862
688 -0.005540184558198619 -0.0037391480762689415 -0.0039255586803691594
818 0.003856221870090084 -0.0001615469351085556 0.00040506671635050164
912 -0.0014167158435984554 0.003199011084916308 -0.0035972325768752183
911 -0.001284845212180722 0.004818296856514116 -0.004061030339098316
910 -0.0011093216405443369 0.006973612403843947 -0.004678358389075461
819 0.004922060710899264 -0.0006229407120406813 0.0015666279302167616
915 -0.0029142171372977047 -0.0013693699972306813 0.0027221431602267197
951 0.00388551439343746 0.0032207489853755184 -0.005008642912979096
689 -0.0015087329759599563 0.0010336616597277895 -0.0026681603236403738
690 0.0015200913621245622 0.004619467415927921 -0.0017234785712149127
817 0.0024375599730752737 0.000452581341879753 -0.001141004389400611
950 0.003932760220886327 0.0008576178769488232 -0.0038620407939044658
940 -0.004878760142150209 0.005586621362172412 0.005687205701015405
185 0.0007501491946031514 0.0024320802100672076 0.00238809329196919
529 -0.005498632458253988 -0.0007514847719442038 0.00389830025873829
530 -0.004139632754226038 -0.0015405329657620188 0.003005797475901411
531 -0.003118618041524527 -0.00213334384903943 0.0023352612942505856
145 0.0019137155495259008 0.0016976260783428468 0.009040502462257504
146 -0.0013183368394364063 -0.0020582903056385925 -0.0013097767947145705
273 -0.0041902763259838985 -0.0035242946011515438 0.0028550448451188162
271 0.003203480703698988 -0.006497139576782812 0.006339132168255155
272 -0.001018390199419901 -0.004799630766077523 0.004349701512849165
147 -0.003746573601793139 -0.004880105407110346 -0.00908592815855653
186 0.0034260238853884473 0.004038507035561233 0.0031254327413918507
718 -0.003792391631326914 -0.0019986318037013015 -0.0025769806781170026
24 0.0033359266458212124 -0.0045541161232756765 -0.006570006579194402
64 0.0006429853519306799 -0.0018068634852838365 0.0015024727411973996
885 0.0011826591655098174 -0.00115553198342711 -0.00605800000871875
744 0.0012333810839098127 -0.0010609657349495002 0.002976419746215099
884 0.00010950690586746922 -0.000733598973108669 -0.003506110556648381
276 -0.0023583937880347844 -0.001016569668170605 -0.0011718353304704626
275 -0.0012273136383497293 -0.0003408188852698573 -0.003103453916431167
742 -0.0034560778486972888 0.0020809031848559602 -0.007467167140751652
743 -0.0007783741941867325 0.0002868808873029848 -0.0015038286884235755
274 0.0002781863015940793 0.000558624680561728 -0.005674493348046986
849 -0.002581124940951748 0.004637432097160865 0.006548595832899465
847 0.0015658469691730678 0.0003387796068465847 -0.005360929332415899
848 -0.0008020939806201175 0.0027933308990542144 0.00143946694292177
883 -0.001318889360207911 -0.0001719941019847329 -0.00010947291085031336
231 0.001835877219244577 -0.0003847505093295383 -0.004213885589815164
230 0.004012544336453837 -0.0022122547345580224 -0.001944258982619346
403 0.004867058145140352 0.0044381809983698 -0.0012331654535533202
342 0.002876018925051072 -0.0011459767488275806 -0.0006062892953099825
455 -0.003869289857354577 0.0012793350193216878 -0.003318240140211498
519 0.00043646627210101126 -0.00010805917487249897 0.0007408070540086644
931 0.0004597279718031892 -0.002774420074122072 0.003080404992861098
702 -0.002009666535572447 -0.004803236520481712 -0.005779009837196558
341 0.0011554919954689653 -0.0018747662783945174 -0.002528845136557306
320 -0.0011493750001186445 0.0013624868782719096 -0.00012174184847701448
321 -0.004227362368456898 -0.0008764078459763541 -0.003630923511213217
454 -0.002935147528488872 -0.0010882765706303438 -0.00039945173043157405
701 -0.0024949068884540567 -0.0037330401650873006 -0.0038278651354114995
340 -0.0011345784207423015 -0.002844805928812038 -0.005087821796471631
700 -0.0031407756381841238 -0.002308578291874333 -0.0012308358867088214
223 -0.0052654185449563864 0.002695109036566333 0.0007409584175290204
224 -0.00017622991928820054 0.0020824026512845624 -0.0027362050857023565
225 0.0036472708858404225 0.001622077139744944 -0.005348593509883332
111 0.0006975521263486459 -0.004651358013039655 -0.001539562303721654
952 -0.0007709481307202925 0.0037351195257167473 0.002350088049575816
407 -0.0005582493936612554 0.0006623315841690966 -0.001540420313896897
758 -0.0027913104101943884 0.0002663005644815447 0.0025911235736221405
408 -0.0037881775992398984 -0.005243157343527314 -0.0015766921821412116
522 0.004082389794250268 -0.00042154045391656425 -0.0007475380258033266
421 0.008621782436406315 -0.005585264908855365 -0.004626192897179325
521 0.004335385120767307 -0.0013231156587838917 0.00029491619122590804
520 0.004672129116304248 -0.002523137971226135 0.001682452487012433
422 0.0022578701284002123 -0.002313046451214852 -0.0051358358580405545
757 -0.00534386647745693 0.0013747524682774868 0.0003967689152454992
109 0.00021544650796663517 0.003657528285470521 -0.00022454855801372397
795 0.00303449778956386 0.001185275545971195 2.0210548591125324e-05
110 0.000490731139894074 -0.0010868858412279086 -0.0009754277454034926
423 -0.002523328923783588 0.00014536702637610874 -0.005518729952661618
794 0.0011629385447986145 -0.0009053280207022008 0.003769826339480456
941 -0.002899457672377324 0.005691304059653997 0.005917433639505809
942 -0.0014124102973596395 0.005769952034320358 0.006090403590696326
221 0.002081950112915763 0.0010576105894878176 -0.004687954644540513
155 -0.004630443215910516 -4.370915568816333e-05 0.0011020608265775568
156 -0.00528701218715593 0.0013506618978854914 0.0013186264007902131
23 0.0036631751298825447 -0.004656330408952001 -0.004118637753136981
694 0.0021046019379442975 0.0048008556061397934 0.003288884346699271
22 0.004098752195962451 -0.004792380538547111 -0.0008557959276154379
314 0.002627679859554332 0.0009113451320070258 -0.0008224964877950097
313 0.006591923349196949 0.0011356804826385897 -0.0015146920400689072
957 0.002125308422641387 0.000519176672668649 0.003801180131626965
695 -0.00015757244487652955 0.004581541847736959 0.002083056544257806
291 -0.0016913570918510343 0.001070326576104784 -0.005232616070590535
289 0.0008497705672546204 -0.005214305390822217 -0.00449149896790947
290 -0.0006012255747634406 -0.0016257502447089163 -0.00491468040585119
160 0.0010466873000161037 0.00041147493901832555 -0.0005780435470279803
411 0.00200349152067367 0.002311837114864758 -0.0006367312110270996
829 -0.0018289597883676366 0.0021115954781154747 0.0016687302740435647
222 0.004099184417856885 0.003929547488632368 -0.00025303658208198753
538 -0.006133861925727504 0.006070863266037232 0.0009721910459153597
345 0.0015755418471380266 -0.003743025807518106 -0.0008499786613427093
426 -0.0036588717631335487 -0.0024610391921259115 0.001373236252953297
425 -0.0026666011591413223 -0.0037784184104442385 -0.002068536845162708
344 -0.000628979816358637 -0.0012731389330477472 0.0015225525075973894
539 -0.0036956941592517414 0.0020982646759993193 0.0005193753313636369
194 -0.0019083534085236377 0.0013393368162669546 0.0025309753297852993
830 -0.0005357264891430147 -0.002721231409001862 0.0014640897184201162
195 -0.0014873606483550845 0.0012865171692190377 0.001636636688297688
409 -0.0022702473440116555 0.004700573360516874 0.0028658711200382513
540 -0.0018639018827501437 -0.0008863434854772239 0.00017917547309328325
831 0.00043587800904067674 -0.006352127972894547 0.0013103435347471737
193 -0.0024687067798802257 0.001409641273011805 0.0037213655699676025
410 0.0001700781478739189 0.0033365934501333907 0.0008658683058592931
424 -0.0013458606836460523 -0.0055318877243683735 -0.006649635005144252
716 0.0011944437441509432 6.8949788051231265e-06 -0.0020039645554359676
143 -7.630385046041576e-05 0.001559391400292849 0.006577287912678709
142 -2.421633425183224e-05 0.006626150054922268 0.00757220805855399
144 -0.0001154371337418084 -0.0022472577967242013 0.005829805699186697
93 0.0006751686553253257 0.001042736377501658 0.0016285359107099228
389 0.0025077223792829757 0.000593079957299063 -0.0034006245670896136
92 -0.00016349274176214585 -3.256826201268313e-05 0.0009346280905370011
450 0.0036738468997762922 -0.003347520738325576 0.003447800490205735
449 0.004951803278103879 -0.0014497751380829608 0.0034863000234689116
809 -0.0001560774384269142 0.0023509861551890073 3.549854916540066e-05
91 -0.0012797749816192867 -0.0014638294070879532 1.101699022040565e-05
390 0.004167997915158344 -0.000900433344411507 -0.007697519607568976
448 0.0066527996675805265 0.0010761783834154237 0.003537544000327421
717 -0.00048770515200957155 0.001778644155035375 0.0007333380838464468
30 -0.004322995694374858 0.0025453130860942975 -0.003537079738690729
29 -0.005000654225250765 0.002058952124252486 -0.00163488252124368
596 0.004796768263635262 -0.0009424256638687855 0.002773876202896297
597 0.008160232087203439 -0.001279734367512423 0.00406511784744502
212 0.0008240583537294964 -0.0005811671172022224 0.0009444982186019623
213 -0.003895411993465503 0.005391517897652935 0.0004137111098888135
211 0.007105807994766937 -0.008530981225133908 0.0016509909994301818
949 0.0039956457647681316 -0.0022877770296865535 -0.002335880669984886
252 0.002239668819224455 0.00506104578681796 0.0029823293302508663
318 0.0019225472869859332 0.0021647105064380137 0.0032053782510706877
163 -6.660449099857172e-05 0.0014082957102143612 0.0014719722019509481
595 0.00031990198161711055 -0.0004934581585868483 0.0010551967451564242
826 -0.00508766118193237 -0.0007504972978897764 -0.004115959655963799
165 0.0018500517117891902 -0.0030505915305050818 0.0017376349591924267
164 0.001027815439403041 -0.0011377503968334481 0.0016236669168756394
481 -0.0006222969971871654 0.0008400708439643973 -0.000555307307789606
482 -0.0031968852495219942 0.0009220476418347123 -0.002700743405344429
66 0.00619483195646139 0.0021550985369908054 0.0015578832473578008
427 0.005129944909613406 -0.0005234703900450837 0.005867612608348205
815 0.0033102003062360653 0.0031541605836286762 0.0008403340146730402
65 0.0038131165239652666 0.00045543592676767987 0.0015341124073030795
814 0.004263328417653665 0.005258981960925291 -0.0011466476634174575
7 0.003495483674469005 0.005085328598953186 0.0007053551796275135
293 0.0036898215061698324 0.000191046222213724 -0.003993630492364082
294 0.0070156373189594855 -0.0006254729740003981 -0.0006729008838320407
9 0.0014749358549382388 0.003348386407546262 0.0008799618651610508
8 0.0023417411301318233 0.004093526235302218 0.0008050564387011683
564 0.0003750511277362833 0.0008659959287012043 -0.0011195363056995013
816 0.002594116393956734 0.0015728110163999859 0.0023331507689267478
563 -0.0026563376481667377 -0.0007677518734111661 -0.0027020777449956925
622 -0.0032882824552733017 -0.0001727740451116388 -0.0010237644443917085
623 -0.0010443237426730253 0.00028012412057146425 0.00012889971534270526
292 -0.0007369341997040179 0.0012778565611676965 -0.008413616315302104
624 0.0006415595238714713 0.0006203859242697551 0.0009948948015847357
642 0.0015151689631457432 -0.0040566794295242205 -0.0015811123212560564
206 -0.004563812401907676 -0.0005103453126619548 -0.002240955792921485
205 -0.006031970743541987 0.0019679029482542834 -0.002390525011246623
1026 -0.004910383703981483 0.003160550554737707 -0.004156440704104264
764 0.0017320756147137062 0.0037484460634296434 0.0017596332515487003
1024 -0.0017418536379232472 0.004768936984833168 -0.002953276605347036
1025 0.001426676428134992 0.006377323414928638 -0.0017501125065898064
207 -0.003460786946536963 -0.002372250012584086 -0.0021285846334395324
765 0.0015154234489939853 0.0048461829231361865 0.00192573090633581
641 -0.0010861805724545891 -0.0011755033737337877 0.00022650552576936435
808 0.0007411129425890081 0.00017300682599058937 -0.00029565820777699686
380 -0.0004963405965206475 -0.0010899071328328315 -0.0017802697710855137
388 0.0002978482865880249 0.002580988759921594 0.0023186652879995905
278 0.0012465111189733317 -0.0001679814035773646 0.0020146992749657247
56 0.001105875761586415 -0.0018155821036795706 -0.001992571497483239
277 -0.0021565295621084886 0.00264336236252172 0.0022247572414058436
55 -0.0005725948649221103 -0.0039030933915045435 -0.004384243851881432
57 0.0023669085634502925 -0.0002472375841902929 -0.00019571116369186117
772 -0.0008545854734721189 -0.0021430199584360995 0.0032297619082827986
381 0.0020286243012405105 -0.0016426863189364727 0.0002308484389095017
180 -0.0005759035830807651 0.0048276069156945045 -0.00047710362532302816
179 -0.002349429004702247 0.0031062032624639335 -0.002478599055350053
773 -0.00312498580899579 -0.001216480091813071 -0.0011087232931966716
279 0.003803211163136745 -0.00228014032395179 0.0018568829975818169
465 -0.0008194568438667767 0.0023549710950426456 -0.0008659284121011227
204 0.0006973938914237777 -0.0010234285125520068 0.006666928237760005
178 -0.0047100419254430224 0.0008149659020706104 -0.005142646559448248
774 -0.00483073463250286 -0.0005203718933177174 -0.004368221590671833
28 -0.0059026370580501555 0.0014115918120343484 0.0008969962297230107
464 -0.0008146805763531582 0.0009249115757360788 -0.0004422036019088165
399 -0.002263567833055593 0.0011820432015313773 0.004613806943410569
463 -0.0008083232280636292 -0.0009785384326754288 0.00012178620595303048
439 0.0037092945255698317 0.005530110926856911 -0.0025518160336654976
557 -0.00026722799457125655 -0.0014677447389189347 -0.0011304650248357478
558 -0.000725317349587191 0.002707186309569574 0.00022694541296837162
556 0.0003425020025977491 -0.007024697042006504 -0.002937217033667526
131 -0.002316663089464154 -0.001894639989098849 0.0016232211482240463
398 -0.00012036211314402288 0.001667767516021994 0.0020510967659741666
132 -0.001969131404535293 -0.002491840652550973 0.0025594148027583965
397 0.0027323058286570262 0.002314280432457215 -0.0013599435739152655
130 -0.0027792376744170044 -0.001099748872663003 0.00037712069188619406
440 -0.001255558315190419 0.00010006684034331447 -0.0017205846793748101
494 -0.003313449287415014 0.0033496249107534187 -0.0018812579684682395
189 0.002438913028029812 -0.005253281377650564 0.00441980919671242
483 -0.005131170059880041 0.0009836367036113007 -0.004312606759156716
415 -0.0013154599096388481 0.001241921566494797 -0.0016754411692601666
416 -0.0022353087703404157 -0.00014448932198599386 -2.9326405603450115e-05
821 0.0034285470441512444 -0.0011159657829583306 -0.0009570938580007087
822 0.003990959231995811 -0.004024389344146301 0.002771435221369431
820 0.0026799603809873384 0.0027552289311553076 -0.005919872407897006
514 0.00011809391353621336 -0.0016787412195764617 -0.0005066562039689807
417 -0.002926390024776587 -0.001186098021967991 0.0012073974785204548
188 -0.0007901555286564548 -0.006171270901479152 0.005095473796764221
955 -0.0019881204466939886 0.002079996099564799 0.003120893940571529
956 0.00036066726512524956 0.001188760683391241 0.0035093406347596634
705 0.0002082610421230847 -0.0024724095275864967 0.0021223314861690415
696 -0.0018571411208010173 0.004416771705871971 0.001177119682293662
515 0.000730539561356216 -0.0014854107639519255 0.0009408749169106794
150 -0.0006040486147754869 -0.0017506581817112905 0.0011116172008264029
333 -0.00024940767620781304 0.0009930068219320739 -0.0014877219820557035
332 -0.00039016630163519664 0.0015574952537175722 -0.0014252071201920691
354 0.0007846745500774673 -0.004954158445359076 -0.0012628129397914474
516 0.0011906691811794166 -0.0013401618437197272 0.002028403168117025
877 0.0027519859834068093 -0.004436181174477095 0.002039731121926072
203 0.0015091007737053422 -0.0012067355409780963 0.004869303769245246
331 -0.0005775200468021542 0.0023088454567855646 -0.0013419980560001978
352 -0.0024641092938537195 -0.0037107310045290604 0.001126801710251961
141 0.004452819270766344 -0.005763977373821412 -0.002076846124520957
140 0.0046966660308538815 -0.0008594940284316807 0.000598234495711869
353 -0.0006090380592767735 -0.004420734066775346 -0.0002376797732730082
149 0.0033307072535137434 -0.003440695076584655 0.0028333911732811657
810 -0.0008301354065018641 0.003987299196671198 0.000284296190582517
715 0.0034334319032582796 -0.0023513537086577835 -0.0056473924417755625
234 0.0028542294164562586 -0.0018716584496384454 4.726863871353133e-05
123 0.003585231882863693 -0.0034456897219734507 0.0006941619109959726
122 -0.001233964469974586 -0.001508550749132112 0.0014428234829219823
625 -0.0041472594770348425 -0.0009919604327558841 -0.0008295858902201692
626 -0.0005413281175225132 -0.0024488659719215486 -0.0006738267611531912
627 0.0021678034298513644 -0.0035434372114115974 -0.0005568051297697549
233 0.0015035736374884273 -0.0019909987581145793 0.0019881182059224268
232 -0.00029418772777558676 -0.002149844112525336 0.004571444336865986
316 -0.0037970469639062136 -0.000290756087143275 -0.00339573149540396
770 -0.0005385753892405669 6.689193089360988e-05 0.0011976087847557215
121 -0.007648452268912323 0.0010698364748745173 0.0024393133885106215
581 0.002725174587336157 -0.0004289054362302627 0.00017656449861740608
727 -0.0025611793784853483 -0.0033714870205259094 -0.0010221519261152268
582 0.0035017988266373336 -0.00046266698355315253 -0.0032449375172877715
728 -0.0016731907783332242 -0.0015147990736378394 -0.0013664309376299412
251 0.0018690894822403078 0.003451501433882659 0.0020081761828760294
317 -0.0005311310772269655 0.0011113271735594295 0.00037353398830792335
126 -0.0026816116811642548 -0.0037052550453628525 0.0019741910923360717
250 0.001375837815035826 0.00130915199263775 0.0007115505588853233
124 -0.0007437758222571455 -0.0019416903540825363 0.0011881722550787324
87 -0.003138323175300454 -0.0008085645901348079 -0.002452003048862765
86 -7.313534189918534e-05 -0.0005965695208732418 0.0012181526100489082
85 0.004006717089767157 -0.0003143980371543021 0.006103234472385977
797 0.0020934438908295355 0.00013038747507296847 -0.0002473412278623808
796 -0.003966678204257752 0.0004923516108389933 0.0009625412660874552
82 0.0006363294777615843 0.002110473414514656 -0.007342109468966516
125 -0.001850289438392461 -0.0029486942934862028 0.0016369927998975324
83 -0.0018970706369774706 0.0014533920948488974 -0.0014966347538466957
798 0.006646405750580195 -0.00014155571004474253 -0.0011563243742909028
84 -0.0038004108530508935 0.0009597277527363741 0.0028950628080972305
1052 -0.0023207026999307163 -0.0031195702789784292 -0.0014753839220721767
754 0.001580437245643708 0.00345478262501512 -0.000454844437589123
903 0.006632702318178236 -0.008037875939963026 -0.0008498846569910911
54 -0.00060597626597618 0.005822402821739908 0.007820926816055748
671 0.0006868537286838323 -0.003688830306293588 -0.0020063398689941937
670 -0.005831246825647579 0.0003454389325256422 -0.005965355166838165
756 -0.003724215702761287 -0.0027390885730954 0.0008429153090514614
761 0.002004748712647635 0.001761256001786287 -0.005212183426836221
762 -0.0030199354741695856 0.0018007280528259816 -0.010953678283203172
755 -0.0014485451572275188 -8.194768462158508e-05 0.000286182633165985
52 -0.0013783102102491423 -0.0001281047970003663 0.0010578276696641886
53 -0.0009373038052879358 0.0032696637357619717 0.004919589881545171
760 0.008692746679543558 0.0017087175760289808 0.0024299099861327337
102 0.0013128550265019473 0.0023246217233280327 0.005117845955893382
676 0.0036950198850480543 0.00087810664189449 0.004349507794100543
170 0.0010219177771461647 -0.000525713569409653 0.0031643122007612985
169 -0.001759742678526944 -0.0024871479230662583 0.003229245803206789
677 -0.0006693407765388486 0.0013183340691546098 0.0024707339950098862
171 0.0031117756649473314 0.0009479095131752133 0.0031155276695733524
763 0.0020204458266483392 0.0022873269934658826 0.0015385525355831485
917 0.001784632411302411 0.0036153142593324805 0.005114577388000038
101 0.0017815456931798647 0.0038335082332034906 -0.0016470620181925045
248 -0.0021322981598783024 -0.0018754409766564676 0.0021807774262854436
771 0.0013163446044399665 -0.0015614273503683318 -0.0002584396944337649
270 0.008159518411668147 -0.0030025022304345133 0.0022242794412872494
247 -0.0019143246815630011 -0.002015300638294529 0.0010326082510958997
900 -0.0006087678235215154 -0.0028289763530755653 -0.0027105914009103805
640 -0.0045486510001335086 0.002659424133541306 0.0026324964371083172
916 0.0027027284184343936 0.002602850147970158 0.009708154642120239
100 0.0024053863385420007 0.005841879214368759 -0.01065134748067503
580 0.001691465573918864 -0.0003839678537953004 0.004730681270003722
118 -0.003958673460204426 0.0003415271804066526 -0.0024557779295859986
119 -0.0025260122498556984 -0.0013125993717145708 -0.0004065919932655794
120 -0.0014496557431196713 -0.0025553425021069454 0.001132958739411518
190 -0.001771598995560675 -0.003891701416303006 -0.0030832506584956513
479 0.00685709693519823 -7.878400574822177e-05 -0.0020298656480413606
870 0.002120773566155117 -0.0037289487875450016 -0.0062050870168577354
769 -0.0030075268069311573 0.0022342313372405317 0.003135650840029534
800 -0.0012128930203673318 0.003944867126029447 0.0032416079759689615
799 -0.0019327047277182695 0.00384452476089557 0.0030540838207923564
598 0.001331822230406387 -0.0013099516275703977 -0.0019274942530765366
599 -6.0827016089226365e-05 0.0001678673608816156 -0.00034972651692451986
600 -0.0011071225863460011 0.0012781508476601752 0.0008356483341974742
869 0.0006422517735999208 -0.0022398987906675116 -0.002776385427627876
801 -0.0006720994194549684 0.004020254214639769 0.0033824946302152816
480 0.006905268722566489 0.000315829276142962 -0.0027667112207437243
928 0.0008228334045865102 0.0015017148725947629 -0.006056509125926101
655 -0.005239128176584966 0.0060433514843598385 -0.002266670397868451
1038 0.0011986623810895853 0.0005556982726467831 0.0034887250660764497
301 -0.0008989249613443019 1.3744606906580543e-05 0.0016558016098558478
868 -0.0013257029027483823 -0.00025793077408035317 0.001787314181200117
441 -0.004985645806592767 -0.003979518229849049 -0.001096081642417456
656 -0.004788387426477202 0.0004900800385928104 -0.004204602485518665
657 -0.00444974648629884 -0.0036820855865711153 -0.00566056834617535
934 0.0038057850766554705 0.0019180106917209483 0.0006038095665366639
507 -0.0033999510760887313 -0.0012213490228074556 0.001316958378280539
505 0.004036108316650869 0.0028338367069659495 0.0033503074104677287
506 -0.00020991743967801053 0.0005183061085784564 0.002189255311999706
573 -0.005132952089033617 -0.003507407795380735 0.00012723630078920363
935 0.002715054317161836 0.0032761069928863196 0.0016707861430344335
302 -0.002776940422892649 -0.0027755311989610056 -0.0006638325453024555
682 0.00041428601883399386 -0.00414233555735284 0.00022139130712830557
249 -0.0022960613510541487 -0.0017703645945037164 0.0030433954364765484
187 -0.005088137877227635 -0.007393141140628707 0.005994802650765763
738 0.0036361062280887532 -0.0027706247652897415 -0.00012043193401831598
495 -0.0024016388372876474 0.005930128255534629 -0.001013695580247504
196 -0.004718124485948723 0.00447827071230475 0.002405383613739406
197 -0.001223540936955308 0.00128562467763039 0.004716248570136971
198 0.0014019351449832485 -0.0011130061419269035 0.006452398410755139
737 0.0012742990506166365 -0.0003693265704061843 0.0005866207347782732
736 -0.0018693336661569867 0.002826869816906426 0.0015277280035308504
654 0.008955668582913641 -0.0004591485708370904 0.006199381475794111
653 0.005465516572763505 -0.0008423982631517316 0.006336783902301582
652 0.0008200247009992898 -0.0013525145346854873 0.006519670450980504
303 -0.004187891000172808 -0.004871110489473236 -0.0024065706735610045
356 -0.00538332586134424 -0.00033863647516942514 -0.005619282848083027
904 -0.0018397393463882418 -0.002539972761364384 0.0021325972272535666
896 -0.0022687382550982196 0.001004305441051824 0.0012772996884730778
878 0.005236325123416775 -0.002280894853916335 0.0014049829041193431
139 0.005021233023537364 0.005668513190151032 0.004158843099997557
1037 0.00025510065188008894 0.009798249846909697 0.0030302404684708103
879 0.007102805892891791 -0.0006616310403521851 0.0009280973924294883
895 -0.003926171702347569 0.0009685272860255935 0.0028210492832274362
355 -0.004457867576810978 -0.0011074090532467457 -0.0007179050599515771
1036 0.0007268815164848431 0.005176974059778232 0.0032594827672736432
357 -0.006078621468620205 0.0002389413643341188 -0.00930168161488048
478 0.006792978912253439 -0.0006040255391211004 -0.001049103174435795
325 0.005174925467224383 0.006018090255052675 -0.0015771187608079845
326 0.001889731208959393 0.005575144016259621 -0.000754358209789605
192 -0.003153403043607764 -0.002077193570820539 0.0022971108054827354
191 -0.002560615767526758 -0.0028556086902952146 -1.1038328304054784e-05
783 0.004176066104830904 0.005249211022875313 -0.0008569963989642328
63 0.0036629449699578107 0.0021533846980012284 -0.0001042269155871905
62 0.0020125245018123364 0.0015676061939519305 -0.0021562978719701755
897 -0.0010235106586907543 0.0010311855224578949 0.00011748262280373233
782 0.002917406551156258 0.0031321038756564365 -0.0010035409493229614
338 0.004300869179618804 0.0013203870982568082 -0.0033825521507834066
227 0.0029293381000250604 -0.0005234427919526063 -0.003481664034228864
228 0.005500950792803508 8.79772801152558e-05 -0.007275513574617807
226 -0.0004935517417025159 -0.0013372603468225384 0.001568057912356243
372 0.0001689653611891247 -0.003728050762716087 0.0005312710248906232
337 0.005010007255348367 0.0021600888598587013 -0.0005020697854123592
5 0.0016569392630246909 0.0020361608197699763 0.002163674796265174
6 0.000576557354176594 -0.0010635169905788165 0.005638109561673546
329 0.0005069487314852119 0.0018430285859551573 0.004260176486231433
339 0.003768094664281723 0.0006895202552870828 -0.005546654811000484
330 0.0021786686728432238 0.0020076326821522744 0.0045176470296623295
613 -0.003108065623616834 -0.0005831010335703513 0.0010128334134988514
394 0.0020270305034472105 0.0006609470415694953 -0.0020977417719649904
501 0.005956383170286864 -0.0014256398197481594 0.00037689095532419297
747 -0.0003689113872863862 0.001479265078583664 0.0026069193838098746
706 -0.004104345002736508 0.003581143979537238 -0.002523594627012811
745 -0.0012095680351382086 0.0016739384722391512 0.003332977336394841
746 -0.0007295490371063935 0.0015627790261029072 0.002918394745745657
788 0.0008359117701115956 -0.002591675056536328 -0.0008305044359254591
851 0.003843008834647512 -0.0017108334180434646 -0.0012048780289278785
852 0.005567765674274701 -0.005056574648680001 -0.001499516599509693
246 -0.003365772622784184 0.00021914007042849528 -0.0015092689284592058
245 -0.00043483744748732886 6.403778914811647e-05 -0.002621430620001399
244 0.0034663208670823896 -0.0001424077710695023 -0.004101749552564055
850 0.0015473082875205667 0.0027424435872981665 -0.0008127056877904582
939 -0.0003292183734836926 -0.0008667088729848648 -0.008581611429910655
789 0.0014751037923750711 -0.004271967417719451 -0.0018080645240902825
570 -0.0025431406969472483 -0.0012229705096689111 -0.00039781082739544097
707 -0.0008966430800650127 0.004186353460654575 -0.0007222506975696049
787 -1.4871042581367103e-05 -0.00035515799843607344 0.000470655923429627
412 0.005753836810412718 -0.0027032852382639595 -0.0008697381881675053
413 0.003507948914977653 -0.0020168868304995006 -0.0005065519001425244
1011 0.0003460341777194886 -0.000983329894138746 0.003415837911859422
1009 0.0001064750150959128 0.0010584652006882013 0.0015220936188108717
300 0.0052924067442528975 -0.0025266861525245076 0.00039767738124571293
802 0.005235451602144692 -0.0015248749077901873 6.453115500573313e-05
803 0.003093697746284753 -0.003670957382239026 0.0026245785431137764
299 0.005467301529006896 -0.002305609539944253 0.0002863820081472628
298 0.005700091475870472 -0.002011350263044 0.00013824469218216942
804 0.0014846008558756796 -0.005283306358172347 0.0045479388210624885
740 -0.0008840021816193266 0.001342316262494671 -0.0025320060628025126
741 -0.001228213497450049 0.0004141570510228501 -0.003108907207899883
1010 -0.00013308414752766332 0.0031002602955151506 -0.0003716506742376807
414 0.001820616255874813 -0.0015011965981725636 -0.00023369051361985937
220 -0.000603046282597905 -0.002765019336771999 -0.010590957078582095
739 -0.00042584710263979285 0.0025777226459576 -0.001764134184280522
723 -0.0020802673228328765 0.0022570552267114014 -0.0006386195136110181
724 0.0035100053157311466 0.006585573922185939 -0.006930983796265374
823 -0.0006980234556379278 -0.0052535510831446305 -0.0016498606885976595
824 -0.0009137020893136073 -0.0026881425433875365 0.0010182106418452944
611 -0.005393897703247088 -0.0027381029386365943 -0.0010105779229866874
612 -0.004409446782578104 -0.0002513967038042684 -0.0014114137458802255
304 0.0034408656215923266 -0.0024499634083493104 -0.003821655300440499
253 0.0008765807975776251 -0.002318687278243585 0.004370476733952574
305 0.0030628994137618516 -0.00342277153557058 -0.00503735514062689
254 0.0020939716870509006 -0.0020993194448828273 0.00433762674427082
610 -0.006704229957205799 -0.006047979863132541 -0.0004770540100601181
825 -0.0010757411666920181 -0.0007607544391674361 0.0030227291673793795
725 0.0016375428382403787 -0.00042200169712177185 -0.00016440094523032585
639 0.0013004949595232975 -0.0027877716019799577 0.004973099414365077
306 0.002778933892684021 -0.004153641018164741 -0.005950708851727963
510 -0.0005302596626482203 0.003424390563438096 -0.0037907357123324937
722 -0.0012854886818418226 0.002015923978089847 0.0009335284535201879
328 -0.0017181581913249288 0.001623935839072218 0.003917475849339835
650 0.0023657738597796106 -0.004536278099313488 0.003189248395699344
267 9.991103202988422e-05 -0.0023645154005118765 0.004538220335024619
266 -0.001658499051865712 1.0937022363280912e-05 0.0018128418858720493
265 -0.0039989930269730715 0.0031727319499585682 -0.0018147145633025015
649 0.0019461194686270478 -0.0010535046529638447 0.003991864647539314
651 0.0026810596588468304 -0.007152881266473576 0.0025862438480507436
721 -0.0002276156419747234 0.001694971408619505 0.0030261022386386532
485 -0.0010704041001920197 -0.0004109242024545909 0.0023930080962090046
129 0.0053826380512653 -0.0005830414080563306 0.001664657572543022
812 -0.001870631687294292 -0.004702416434227255 -0.005380136710714504
486 -0.00032588713322714076 -0.00045034816581726074 0.002711324029211674
811 -0.0017458996990648195 -0.0031765660591875763 -0.006673600866176311
375 0.004837315032368698 2.069407947839731e-05 0.005017845167523228
805 0.0032329132844682034 0.0006449805812179842 -0.00038063124344221754
114 0.0033539155544279435 0.002158833587812444 0.004345477457839565
113 0.004573913608886987 0.001012442137099323 0.003647397215967531
112 0.006197765816204987 -0.0005134375812223787 0.0027182325033634435
138 0.004493668979038887 0.00027889256292870537 0.0033677914215979317
1069 -0.0009117558866006564 -0.0032810553266447934 -0.0011533595748475876
1071 -0.0020863051836124374 0.0021238645955146745 -0.006151900423681781
137 0.0027271139180129514 0.0005240092040159237 0.0034006840963726895
1070 0.00026279341041112467 -0.00868597524880426 0.0038451812739866056
107 -0.0006927898449035126 0.001990502554165824 -0.0006900083945384753
136 0.0003757787460337372 0.0008502664445296002 0.003444465184664066
108 0.0007808653329348974 0.0014283903215887327 -0.001111768420356574
116 -0.004963588647989521 -0.005307093461403371 0.0019169098668386448
115 -0.007173835638801201 -0.001740257540149164 0.002998021669992347
117 -0.0033030329542433332 -0.00798685265678721 0.0011046719731705704
310 -0.0013788538638290345 -0.00332956798759585 -0.0038269952945733767
106 -0.0026542669182580214 0.0027386899683133877 -0.00012863377071834913
286 0.0017169631931793117 0.000743870713106175 0.0008573381849287898
667 -0.0024487670277300922 0.0045075750490237805 0.0011815687346999372
669 0.005134079721391686 0.0014414432015819709 0.0015626062072321993
668 0.0018810750166331025 0.002756798984856047 0.0013991429681814663
920 -0.0020868142718123645 0.0010175751875948105 6.71519784177361e-05
919 1.9504786497091028e-05 -0.0022993034080195027 -0.0025191913497215304
288 0.002433339430671681 0.003728370924310583 0.003317164460207417
287 0.0021260174778431036 0.002448034719503946 0.002261910844895082
853 0.005654609034147399 -0.004636857125798956 -0.0014999797376082417
946 -0.0010255092433544156 0.0009381360344292318 0.006711515206221451
921 -0.003669289044840968 0.0035095417688453113 0.002010268361961344
947 -0.005762383655521036 -0.0019408703615500036 0.0009278111540297375
544 0.0071100564353987206 -0.00990575865084807 -0.007850184709099733
748 0.0008432095181784605 0.0027965151690236517 0.001012941470865014
749 0.0011268680722408956 0.002301815438686568 0.002010929369893212
750 0.0013399803755202735 0.0019301481737514976 0.0027607163823449156
576 0.0024594097078194472 -0.0012326927512360478 -0.0036610034877763075
565 0.004351497138599735 0.0033008129947237784 0.002567136670160338
1056 -0.0033973758230280283 0.001598874390400014 0.0013409964904964869
547 0.0006700026480610143 0.00044623467694358593 0.007755362684718182
1055 0.001317953392429233 -0.0005424839140517721 0.001162179291579234
1054 -0.0010397112152993977 0.000528195238174121 0.0012515878910378604
67 -0.0025529356319932486 -0.002879242269083642 -0.003374083600749374
68 -1.0001943668002506e-05 -0.0025190137695665187 -0.00028297136340329126
69 0.0019005008338594757 -0.0022483745657085295 0.00203937724608335
575 -0.0014053774056485674 -0.002314026809122548 0.0001751196979095605
867 0.002690148451548976 0.005785097602365476 0.0023288606622870376
866 0.0022678804320469983 0.004681039107098066 -0.00018958694869398388
229 0.00690975035244543 -0.004644714982485311 0.001076678765938631
395 0.0022282016400534356 0.0009025022364166919 -0.002149322017074498
614 -0.0039063757168119155 -0.0018347186877583272 0.00047466901511715014
615 -0.004506145053063026 -0.00277505740587229 7.034680152777513e-05
1074 -0.003724630561857755 -0.001400513326110836 -0.0007702953646037784
1072 -0.004325573650214799 0.0002259597800673375 -0.0008229127041532527
752 0.0010436170280799 -0.0034886632990295866 0.0045687467152407775
751 -0.00575634647937861 -0.003989902062101547 0.0036755241579777284
775 0.0015869393000669195 -0.0024823723214571825 -0.0011195232116828825
777 -0.004860586546806358 0.0013174825163180938 0.002779714247797981
776 -0.002094629036671984 -0.0003126368931390813 0.001106960172670298
396 0.0023793412537244756 0.0010839823405973453 -0.0021880741882379403
1073 -0.004926516738571843 0.001852432886245511 -0.000875530043702727
148 0.008567979541470018 -0.005690182386960622 0.005125121439124177
201 0.004704272086185252 0.0010423009651943083 0.0012324670945805302
753 0.006152420780112049 -0.0031120832672930634 0.005239823662483199
200 0.002759382974843727 -0.0006830771008440182 0.001670157424805221
379 -0.0038571408925899492 -0.00035414226973895903 -0.004457125469782424
953 -0.00015934811875123044 0.003950959369429943 0.003803362247053839
954 0.0003001461759553957 0.004113119563700183 0.00489520526424999
841 0.0009945997826517961 -0.005596217189719531 0.005356051863512554
843 -0.0016223783743998244 0.0004696667295559301 -0.0029572272153663933
551 0.00033127510368622884 -0.005151789555036845 -0.001975006585943046
550 0.002136978193171948 -0.006442445850685541 -0.0035823224860437953
793 -0.0013281601906710984 -0.0036879809962225398 0.00876067190384479
552 -0.0010253472823754427 -0.004182121156292995 -0.0007674322376206002
842 -0.000499707359305746 -0.002132568233218156 0.0006091294380496037
242 0.0008622880378109895 -0.004180242320358991 0.003898634159101844
243 -0.0005358436556044655 -0.006055617246209333 0.001689100632715095
922 0.005129445779671344 0.0060007496110361 -0.006445395936943152
241 0.002723241199314709 -0.0016840648045339805 0.006839586303125684
315 -0.00035065112584601547 0.0007428022744221396 -0.0003024508683268912
256 0.007908183273804867 0.0008456534381190298 0.006646882483530594
258 -0.0019952859373576506 -0.0028604602518660996 0.0003277126681089401
588 6.562715272725832e-05 -0.0028740267913861224 -0.0002745960189019125
257 0.002253254617820328 -0.0012705553429625698 0.003038606059448522
217 -0.004364571193177661 -0.001096746771914054 0.00275236166159243
587 -0.0026544736373610026 -0.00018311818728327815 -0.0007796291765279376
218 -0.0006708580015329308 -0.00015800197125614507 0.0013531242036906423
219 0.0021042239223196327 0.0005472757783290467 0.00030187891876053597
36 0.0030578823183869 0.002700831706894118 -0.003165827813419854
1029 0.0019224953974638864 0.0027930276719791737 0.003630544607612089
1027 -2.875239752968815e-05 -0.0004935074331865457 0.0013945340304036076
586 -0.006275005371791372 0.0033985579149798115 -0.0014518427139039545
1028 -0.00198000019252325 -0.003780042538352237 -0.000841476546804863
161 0.001509446718307696 -0.001376992508764963 -0.0016352830392597768
537 -0.002694541318473634 0.004720924341796499 -9.109034389629235e-05
296 -0.0009968253241055313 -0.0011054572035383858 -0.0035844628096363116
162 0.0018571172682839106 -0.0027206657795995513 -0.002429585696735222
35 0.0011534798536477488 0.0007715305512027138 -0.0027724020589087184
726 0.00023076421067102148 -0.005686784159160067 0.004919323962982348
34 -0.0013813341443628733 -0.0017964243146268053 -0.0022487411583493834
663 0.0017319908766672218 0.004581912445042694 -0.0073317517260610525
508 0.00345417318575558 -0.0002025195144776215 0.000367714021677444
343 -0.003563261027927226 0.002014350943083931 0.0046804591628849795
909 0.0005708541680610707 0.002775085579070942 -0.0038881947279195265
908 0.0027510129051632358 2.8466031303188335e-06 -0.003749133224264041
907 0.005652866366820388 -0.0036870825437569474 -0.00356403839658087
509 0.0011790428236710968 0.0018684636223374358 -0.002006780820879212
661 -0.0017266775424345324 0.00014699465337929393 0.0024151405967742915
662 0.00024823879624426097 0.0026793540894792726 -0.00315038190124812
297 -0.0001885124302341461 -0.0010057119957810352 -0.003182425409003067
889 0.003849207144610645 0.0030482580666153585 -0.0010617511376475445
958 -0.005075966102624959 0.0015289667017034643 0.0006476213965153185
632 0.004197305185648796 -0.0006544393395629184 -0.002011343688290811
633 0.006106617880682383 -0.0007987644573084571 -0.002912228573535338
374 0.0027638217939053465 -0.001001027940392426 0.0034965428815643142
373 3.943153254033337e-06 -0.0023609690904365663 0.0014716461483087102
709 0.002910219555655326 -0.0003476833352066168 -0.00039452388528952607
943 -0.00012549181004891364 0.001610532920864655 0.00217804098796451
199 0.0001706800954435943 -0.002979604518042831 0.0022527357381552852
503 0.0032099668415861205 -0.0030732930383007024 -0.0006099375845729523
502 -6.339067526767161e-05 -0.006846843256233821 0.0003007517731446836
857 -0.0015673330861151495 0.0019403339122475386 -0.00032075989605700566
856 -0.0026792319238233085 0.0023284691723842853 0.0012832461548240694
858 -0.0007319649333694827 0.0016487283953785681 -0.0015258475589592143
592 0.0022247930022993097 0.005634806238029998 -0.0005094546418280142
153 -0.0021802040956938685 0.004497122652998923 0.00038484999939891675
923 0.0004615063519389841 0.003610720734160384 -0.0023732981654438455
474 0.0039735477248735536 -0.003706652134467382 -0.0029748708453142306
473 0.003315951125498541 -0.003377720898378931 -0.0023369621341498784
927 -0.0030902491236392236 0.007157936023621039 -0.0010398782860517283
926 -0.0008756628904228914 0.0023072279939409836 0.001392167802276317
151 -0.002569395577035717 0.006716479580947067 0.0025729836674860383
152 -0.002347165365220203 0.00544921607740975 0.001323548795830804
392 0.007772077124325841 0.0005884231685448942 -0.00036558150243327665
925 0.0020720145505046454 -0.004149202745650428 0.004629290512756152
391 0.008515352447886225 5.024017046459904e-07 0.0004032228692933834
350 -0.0010568422783743437 -0.0022223210423574433 1.0277434937447166e-05
351 -4.657081753007132e-05 -0.0047213506141593605 -0.00095568677217751
924 -0.0030455104778573296 0.0018150951428972622 0.0006860636018449057
393 0.00721365533902755 0.0010301272771385105 -0.0009431832284642803
14 6.040387207469182e-05 0.00025007056630231176 0.004086794881646004
15 -0.000766682529429171 0.000663981098909371 0.0069176028396125445
472 0.002440671295734045 -0.0029399040413554066 -0.001487887445132503
863 -0.002228724515082524 -0.0026192896365711555 0.004740246438919848
864 -0.002861084732986 6.863670206342428e-05 0.008713085884344354
209 -0.000977791458790094 -0.00227403390032771 0.0013309613273185148
208 0.001603774900784556 4.677355959455728e-05 -0.002910656178902092
429 0.003315105416959231 0.004065384730869025 -0.0019927862432969298
349 -0.0024015424077608385 0.001103958595131701 0.0012960033458769696
525 -0.0014207370726845605 0.0019003100251499196 0.005852784429993052
862 -0.0013870350288497256 -0.006196996258435684 -0.0005477161764247881
854 0.0006296899049928215 -0.0015898429185541797 0.0021401557448971604
855 -0.0031455253108719832 0.0006993748981874879 0.004874984805454787
103 0.0035318266416705267 0.00016549287708554617 -0.0029198437842136576
104 0.0018575799015527453 -0.0006871194501392004 0.0001803140334761585
524 -0.0030708158025335363 -0.0014866820123462425 0.0033365719357845275
523 -0.0052671176555736735 -0.005994865018175164 -1.2578661519854588e-05
105 0.0005997205000486713 -0.0013276859842944137 0.0025094585757275347
646 -0.0010211627115602063 0.002056789684574505 -0.0051623248523256894
39 -0.0013150502347790078 -0.003295259338871346 -0.002257046800029209
184 -0.0028115163402364094 0.00029388028676486733 0.001406673454362533
960 -0.0020830604156006167 0.0011145560998055025 0.001433126722855582
404 -0.0017399258433485544 0.004457023907684079 -0.0007431417780175792
159 -0.001640808448891453 -0.004434695377600233 0.006830598426312373
405 -0.006703744333401583 0.004471180560980603 -0.00037498762698196485
37 -0.0029973850674252177 0.00010793991799592628 0.001593407200519458
295 -0.0020727128405808393 -0.0012382209200002005 -0.004119586056805884
959 -0.0033670025290181782 0.001292336250489944 0.001096148724125258
158 -0.0005444858050642644 -0.0032339210160776313 0.0031569688425511413
865 0.0017058296541446237 0.0032115057598968337 -0.003541712550172623
648 -0.0007523086119929736 0.004567777397805385 0.005700267768038884
157 0.0009147509032277517 -0.0016356560923569676 -0.0017327369128440884
504 0.0056692360928847435 -0.00023822966028212017 -0.001294137316312742
38 -0.0020367637688434 -0.0018353032616761538 -0.0006052205936388469
647 -0.0008676457247847112 0.0034905757722183952 0.001040267893451637
45 -0.0014906590794006222 0.00022212740037591062 0.003647260309856638
44 5.598657111686333e-05 0.00039196825366963247 0.003458170042808318
1 0.004019521544571209 -0.0013071577960380087 0.0007139129889075347
21 0.00752622592323332 0.002628597288626075 -0.00034671378672352076
20 0.0022324980318778114 -0.0010960818833905142 -0.0024293416112523953
19 -0.004813604779433778 -0.00605373609679203 -0.00520137864649395
2 0.003698292096375606 -0.0016026933002259427 0.0007463292268155829
3 0.0034569528291273507 -0.0018247287407099936 0.0007706835042568888
43 0.0021146160454443663 0.0006180312736111496 0.0032064855041268837
527 -0.00027447801347409064 0.00021843461031833603 -0.0024783095694221953
322 -0.001724144971475136 0.00033037598725259797 -0.002441096543048588
281 -0.00010022595869858331 -0.001487916463583188 0.0016398596034538073
282 -0.003756287538192552 -0.001937995986589643 0.003849005975193097
280 0.004766096281941592 -0.0008888477812755683 -0.0013005772266918634
436 0.0009770866744631755 -0.0025355447570460862 -0.0003041800944245472
645 0.0011012596376846619 -0.007923820561545537 -0.0008525588979314562
88 -0.005291272879448828 0.009013065021255056 -0.001736949875741169
89 -0.004286217888390118 0.007509312818959325 0.0023941550391461176
90 -0.0035311213788739304 0.006379545742299481 0.005497848796629608
97 -0.0007850139588765795 0.002142374574947676 0.0004470670542552314
846 -0.003208330187925816 0.0038614166038660673 0.0034413147156845065
845 -0.00244968635271987 0.0008774125719719258 0.003270080145761622
98 -0.0008534277871233883 0.001022937463373626 -0.001828571810146622
704 0.0017208971024700503 -0.0006235698814809798 -0.0006573247640392995
25 0.006634913012925148 -0.0010726036604692436 0.00028524587546605734
27 -0.000773786508808431 -0.0003733068313525194 -0.00038470062408467833
26 0.0024045098748199556 -0.0006733018003136077 -9.72968050338097e-05
99 -0.0009048270074360873 0.00018190581526247613 -0.003538256333596582
703 0.003734258842257715 0.0018372884201633623 -0.004357126514532691
323 -0.0009173497979054505 0.0003833893233416544 -0.0037147952270756815
324 -0.0003112056317884876 0.0004232181738968732 -0.004671723394231104
844 -0.0014399097699911267 -0.0030943819043608278 0.0030421620492350463
493 -0.004527095003228442 -8.509864236936867e-05 -0.0030360082518389652
377 -0.0020941856106511314 -0.004599427432334426 0.0004874555921701981
376 0.0006073708814442187 -0.003656640294960329 -0.0005319251167150857
73 -0.0033179122348552916 0.00011744198273772803 -0.0022900328485202393
665 -0.001750559909830767 -0.001403374733010632 -0.0005549869466828555
74 -0.0018826448487686694 0.0014541677598147473 -0.0014872433646737023
664 -0.0013896424884610433 -0.0018478761379808568 -6.68399109854607e-05
49 -0.0014522859591179476 0.0026575825908297856 0.00684546309398911
666 -0.0020217166997819193 -0.0010694214047310528 -0.0009217311806451205
48 0.0001226140688237057 -0.0018442952118468078 0.002668518412003542
75 -0.0008043303255854031 0.002458448100125213 -0.0008841086680435412
50 0.001909285510710366 0.0022197940236944025 -0.004180297275164104
489 0.0015460832008296441 0.002322577979800998 0.0024526227090433173
378 -0.004123861494647445 -0.005307742184244702 0.0012533149948846694
536 -0.0006240142596727619 0.0003222005840232183 -0.001735644711395568
47 0.001236976612629245 -0.0012207403455581746 0.0004996594495589764
535 0.0021319163112462902 -0.005532626198146924 -0.003924593480582163
46 0.002720224942327193 -0.0003907710334713206 -0.002387153689736307
893 -0.001119300944575474 0.0009456337947246899 -0.0005583577991493601
894 -0.0034325592092784886 0.004518714160780722 0.005324549035650591
892 0.0019597117845884804 -0.0038102380840361657 -0.008388674588770736
51 0.004434829790315148 0.0018908840417621682 -0.012463936721339629
693 0.005123076119630915 4.9382554825830836e-05 -0.0029035180660595445
368 -0.0025780398723210113 0.001830843190338746 -0.001949962572619383
369 -0.00393536937563182 -0.000868619694604424 -0.002292047566840816
891 -0.0003951419930377689 -0.001192235184729704 0.0006593473817331267
890 0.0014256633285266401 0.0006269159801965951 -7.899558709276997e-05
327 -0.0005784309707890425 0.005242359082309257 -0.00013621927632969462
202 0.0025895057855580697 -0.0014507224241035732 0.002476614329735541
367 -0.0007713955896082639 0.005423905284385813 -0.0014946376883488393
1044 -0.004465300837578318 -0.002098939410532131 0.001212866416686757
1042 -0.0022124179678675703 -0.0018075949396286946 0.0026334421714737954
526 0.004800846850402443 -0.0020379711426318074 -0.006230823729560296
364 -0.0016920254509254456 0.00301588730179645 -0.00013586494194091575
945 4.044097341737876e-05 0.0008683399311025365 0.0023650966015941618
462 -0.0067170267964254855 -4.510450824834686e-05 0.0006926153904765172
461 -0.003959963626874698 0.00036543246707060513 -0.00023039112840732106
604 0.002946619254754823 -0.0005690970901837563 0.0031963037082203922
365 0.001179290081557138 0.0010768161819408424 0.0025046634365890573
366 0.003336505712130092 -0.000380005432132497 0.004488488978120991
644 0.0020132803129487664 -0.004934991730611923 0.001116646329707275
944 -3.074339086534297e-05 0.0011867371462136861 0.0022848506449870036
711 0.005859383862587402 0.00012221173846884797 0.00043894926499144665
1043 4.04649018431809e-05 -0.0015162504687252607 0.004054017926260839
435 -0.006129211577766099 0.0023883386917714277 -0.0024186103404973845
593 -0.00275494081237744 0.001234201030058685 -0.00038646666562884303
605 0.0024864865622737696 -0.0016619457905534569 -0.0015695787587041007
710 0.004594206590388513 -7.937098316352693e-05 8.139330100365055e-05
594 -0.006496208360157301 -0.0020719679476184655 -0.0002940659588350736
643 0.003227205844415253 -0.0009567753091445281 0.003737714653444222
434 -0.0038832614257067353 -0.0005098193075873977 -0.001178407055660618
433 -0.0008938377142362155 -0.004367350266111689 0.0004723388895845318
236 -0.0006736590108295968 -0.0011440465645184033 -0.00533250103445467
387 0.002336923238942262 -0.0010275064728037556 0.0008794639869306182
235 -0.0022666402910251774 0.0008944459450237436 -0.00530858825703533
237 0.0005231457561744934 -0.0026755633395445506 -0.005350466673074263
875 -0.004768448743770215 -0.0011396891264222647 -0.002832213527560537
386 0.0024008673175972403 -0.0018208424757005192 0.00029810536071651444
876 -0.008939307135497586 0.0017270169305619253 -0.0017907865423194128
511 -0.0013807748168966605 -0.001012662500127949 0.003171118176819366
874 0.0007830827370077838 -0.004955356652572361 -0.004218382548538357
786 0.00022551154086469555 -0.0016307222179985869 -0.001394637855059674
837 0.0022228731155569184 -0.0010555054262318011 0.007514170197378585
836 0.0031933575962826127 0.0027688394039577084 0.006054457978923828
835 0.004485100120325462 0.007859151451055257 0.0041115393821905995
488 -0.0002986457064125399 0.0023370596363784368 0.0016456013500555208
183 0.009557826534339231 -0.0011052457660419722 0.004616505600139022
210 -0.0029173189120549445 -0.004017653530931645 0.004517683051147896
181 0.0027174450021584602 -0.0013596762384116858 -0.0023751967412922073
487 -0.0027540324973831225 0.0023563351343293907 0.0005714329033474782
1063 -0.00140033746445772 0.0003737632375915996 -0.002861272088181774
94 -0.0017415387856967277 -0.00010983986998836784 0.001826641466040716
95 -0.001237618554260089 -0.00168819471328611 0.0016794054820183694
96 -0.0008590239388235991 -0.002874010657244214 0.001568787278437943
1064 -0.002874219614025654 -0.002904650902728833 -0.0008878318456597943
1065 7.354468511021361e-05 0.0036521773779120323 -0.004834712330703754
182 0.006623335828839363 -0.0012143952122903074 0.0016170989968628158
452 0.00668385215582548 0.002550368591304854 0.0016507522573478508
453 0.006527737043529617 -0.00047573898903793257 -0.000570513677070427
428 0.004093662811471984 0.0020967880030612223 0.0013792869755956973
692 0.003431140465100325 -0.0012020918468173207 -0.0002572234778140081
460 -0.0002902339111372711 0.0009118688905720639 -0.0014589391310703434
1050 0.0011783386822207757 0.0018639640746996988 -0.002370613044598198
562 -0.0066912025702848665 -0.0029423167958424765 -0.0048084855380087724
873 0.0032922337368607333 -0.005323914291190895 0.000989379185686912
871 0.0008890714614640878 0.0004512554158187438 0.0004374223527212532
872 0.0022612887043676217 -0.002846394324186759 0.0007525923648707213
1048 -0.0050507115926980576 -0.0016597130601415729 -0.0011922991772190482
691 0.001179125851464095 -0.0028678399700070084 0.0032650700968602626
1049 -0.01127976186761688 -0.005183390194982832 -1.3985309839901995e-05
59 -0.001150221877344821 0.0029894202871016623 -0.0007289343260424734
60 3.570788164027538e-05 0.0013001498111644219 -0.0011095211310859319
606 0.0021407894679876783 -0.002483001599857186 -0.005150180066646727
58 -0.002728728211689716 0.0052378874720138205 -0.00022236243341764773
361 0.0063721665348022444 -0.005906054475145367 0.003159053268369779
362 0.002506673464464507 -0.0030322308391902615 -0.0011052791965801955
929 -0.0018247436948789662 -0.0011644049790206488 -0.0037949708187561618
930 -0.0038138649312955703 -0.003167457361046006 -0.00209588002564214
528 -0.0040875629923735465 0.0019136693221126942 0.0003409494456945595
370 -0.006868323136506961 0.0014127974220073062 0.0004672672108258322
70 0.001013313041205895 0.003950807556927566 0.0008122746428324327
71 0.0006471101202758318 0.0046151845428468105 -0.0001350414286468563
72 0.0003719823413692819 0.005114330109540688 -0.0008467587628686376
660 -0.00029974523332087317 0.0031730134192286745 0.001626172652588467
134 0.000175627718632395 -0.0018258305095663074 0.0017008752045580416
135 0.0036261829330914196 -0.0003033145990886908 0.003296846402128133
11 -0.006041916870236605 0.0015279246268023019 0.004096833359962691
133 -0.004417159688685572 -0.0038523426116713424 -0.00042340797976169755
12 -0.00519674008717415 0.0005234451548965747 0.006562210531006238
659 -7.929020996775792e-05 -0.0004501545780698183 0.002868613113546585
658 0.0002141417139421636 -0.005272694522615782 0.004522336804018066
371 -0.002849997483391652 -0.0015226516712348278 0.0005038136971661292
10 -0.007166871274658532 0.002864915453712264 0.0008153460277180516
334 0.0014927997388392191 -0.0007089032584859263 0.0010219923502981934
500 0.0044973520756714834 -0.000902148590384274 -0.0006453428459786327
735 0.00261838212867704 0.00553319811024246 0.0014358304820896086
734 -0.0008560176121636606 0.0014100468714202197 0.0008019593043059343
261 -0.0006412799136467355 -0.004082002505673486 -9.277547565847454e-05
733 -0.005480542764190189 -0.004077985028135752 -4.1741312623066844e-05
260 -0.0001467024449103547 -0.004735725620687675 -0.0006659429473469362
628 0.0018467874520173913 -0.00037996624989909754 -0.0017956627515832288
629 0.0029415194397580395 -0.002140760391774185 -0.0025044415585572534
806 -0.001979446670119651 0.0025276677726942037 0.00045237406589653846
937 0.004194980621375394 -0.005238343311544023 -0.0048865276732450984
807 -0.00589548593470288 0.003942128214601994 0.0010782098729776742
630 0.003763990160417735 -0.0034636427438193 -0.003036946155744886
499 0.0025553400741955144 -0.0002053668330632833 -0.0020059651917058224
936 0.001895589714087718 0.004296442980190425 0.0024724042592733416
938 0.001611641187900061 -0.0027421189751031336 -0.00699643830923507
541 0.0020981935325418413 0.001985363281731033 -0.00034557133739112787
259 0.0005115942723359965 -0.0056058497322882365 -0.001428845200069694
882 -0.00024324914134431328 0.00010137812329569137 -0.0019808576626500663
881 -0.0006794145134897716 0.00024147648148357568 -0.0015146008359865095
683 0.0024885863041533094 -0.0030849260627765812 0.00034812165989996
684 0.0040470054146172375 -0.0022904956827605105 0.00044333400935242496
792 0.00409830705501249 0.0010308712096345895 0.003182295048289755
880 -0.0012599630641414617 0.0004279513921225916 -0.0008939997011015682
791 0.002379150540426874 0.00045180289034218177 0.003244778009867942
176 -0.0006224379856710255 0.0003096233872704444 -0.0008932020803440455
175 -0.0011834511809210519 -0.0021321450843951387 -0.0002901196300841145
790 9.090418566296086e-05 -0.0003189535588456386 0.0033279446138700245
675 2.9429560634567503e-05 -0.002232076812030056 0.00020200662241461433
674 -0.002115970395635075 -0.0022335691061734267 -0.0005648586274632126
177 -0.00020094950066824787 0.002144120868904904 -0.0013462971420003659
61 -0.00018423221464749888 0.0007879182974645273 -0.004887662844165334
766 0.0016379314695780121 0.00215690006183945 -0.0006061890268101221
543 -0.0016131504805359054 0.0020876378418036422 0.007590101003712954
542 -2.1001788236710994e-05 0.0020437625485133105 0.004185735820673504
673 -0.004971558928612813 -0.0022355553922415263 -0.0015855781476117538
437 0.00036793033603178734 -0.001926920261208837 -0.001552169420602838
767 -0.0011731555973391312 -0.0013212944908545605 -0.0021244965403414123
768 -0.003285121659951558 -0.003934457541157789 -0.003265199003429538
577 0.005593057252106175 0.004696506837862201 -0.004938689417632822
579 -0.0035986512319524846 0.003179692975467604 -0.001812473121801572
578 0.00034454740210604936 0.0038303988111333615 -0.003153604843817425
438 -8.972802991958251e-05 -0.0014696614679077374 -0.0024897821805952305
447 0.0008571883702331736 -0.0020187777051046797 0.0034223635433380754
446 -0.0005758806392505858 0.0006612368638196635 0.00030045553870394407
679 0.00631620906270544 0.002113578078484222 -0.0033731861911463225
681 -0.00024284101289705293 0.005146575164923627 -0.0008534656947262621
680 0.002570959853796345 0.0038454340344043865 -0.0019344136422079152
560 -0.0035179548288204205 -0.001518339017210992 -0.00190812023687407
559 -0.007969380267862602 0.0009950086008882703 -0.0023197974449278643
359 -0.0013386586782322039 0.0033686322077020425 -0.0037959803162385033
360 0.0032417754046948164 0.005133029948615368 -0.005687799873743028
358 -0.007435347085931132 0.001020168490323924 -0.0012779145266473336
445 -0.0024833363649247285 0.004228412694540041 -0.003854893058648302
561 -0.00017360467754002403 -0.0034066138186011567 -0.0015988276851089727
813 -0.001964342668061501 -0.005848785839370698 -0.004408358770539627
442 0.0013598360919739056 0.0024637744604161537 0.00022986151932017414
1051 -0.0011213789245878404 -0.001816483125630303 -0.0004377653103230786
784 -0.0002867695638316263 0.006624680629101683 0.0014823916249210058
385 0.0024859787101025694 -0.0028767953231171282 -0.0004756995523083103
513 0.004631930694911019 -0.0010444700658805899 0.001928495913968553
512 0.0020525090126116137 -0.0010308247734905965 0.002461574875080308
785 5.745416232273037e-06 0.0019108058109576621 -0.00016040607592076624
18 0.0003795480559523958 0.00026513555938835676 0.0023792907637312285
1053 7.794485075503536e-05 -0.0005133959722821771 0.0005998533014260196
443 0.0020448608966587194 0.003443349108600831 0.004451109274877352
17 -0.00019993144253782123 -0.00017926393720634696 0.00287111207558241
444 0.0025595191427758212 0.004179302269607102 0.00762252723148751
16 -0.0009712351829655988 -0.000770772342354007 0.0035257402694033437
619 -0.0016053962028508405 -0.0014172647903123467 0.006957502566378782
672 0.0055838942100873475 -0.006719771546107783 0.0009680631826976763
780 0.0018453546120880066 -0.0025452575459092483 -0.004200304664031978
262 -0.00036881218020265514 -0.001813879079219574 0.005096072683749302
555 0.0007161718335170915 -0.00406948833247452 0.002158362894792116
545 0.0014312610498968315 -0.002681889443888345 -0.002662799771721884
546 -0.0028352105481717987 0.0027453941096521922 0.0012344757948665568
553 -0.004618729411133702 -0.0018616677440548932 0.006591093133379418
621 -0.002781847090751875 0.0001461318857601758 0.0029081915616735185
636 -0.002326792601971134 -0.0007047784911785103 -0.0008164808186926552
554 -0.0015724750853041737 -0.0031223439421143016 0.004059982800630275
534 -0.0014068800712667992 0.002350267697684735 -0.0016711781658502317
451 0.006891645823012702 0.006578204091501838 0.004607320571093872
532 -0.0021910561560854313 0.0036680649982679995 -0.002377150949439553
533 -0.001743287831791512 0.0029155963876272045 -0.001974037087100823
620 -0.002277155330536268 -0.0005245577524363064 0.004645326464322382
779 -0.000275046681892495 -0.0026521624280058647 -0.0024853623966584267
778 -0.003097361282350569 -0.0027944558752217466 -0.0002027253251326868
635 -0.0013843793744884442 0.001701319587948598 -0.0001454094581033228
899 0.0014655015506323367 -0.0009994634687792278 0.00010137190857199141
363 -0.0003974664591593646 -0.0008731308737356756 -0.0043090666394030004
833 -0.00242228215511911 -0.005398160127441742 -0.0003539829496532164
32 -0.002729558806983042 -0.0009447156153272022 0.003248377656788428
832 -0.003707874131104108 -0.003518873620626692 -0.0004619628701291318
918 0.0010948680734766323 0.004375977231310533 0.0016634287626642874
263 -0.000618213073842822 -0.0014746099280951688 0.0018601567942559466
264 -0.0008055876413374184 -0.0012197174554646902 -0.0005709826110322407
33 -0.0025208217386136003 -0.0058012186746837875 0.00674513014324366
31 -0.0030073937985897314 0.005519428474049765 -0.001405899637196934
634 -0.00013000048916144563 0.004903904758091861 0.0007478056631651013
574 -0.006549519285286188 -0.003753313282022466 0.005281109072115453
336 -0.0034707483712419634 -0.0034287273139117923 -0.0007669243083176575
335 -0.0013414101571656081 -0.0022619359041499234 5.123153451306483e-07
898 0.0042264132500246755 0.0014356703616584142 0.003844175276422352
834 -0.0014564185731615594 -0.006810065639380058 -0.0002728577756333301

Bonds

1 2 590 591
2 2 431 432
3 1 430 431
4 1 127 128
5 2 128 129
6 2 347 348
7 1 838 839
8 2 80 81
9 1 346 347
10 1 484 485
11 2 839 840
12 2 902 903
13 1 913 914
14 2 584 585
15 1 859 860
16 1 583 584
17 3 1066 1067
18 3 1066 1068
19 2 860 861
20 1 901 902
21 2 713 714
22 2 686 687
23 2 914 915
24 2 311 312
25 1 712 713
26 1 685 686
27 2 401 402
28 1 400 401
29 2 41 42
30 1 697 698
31 2 698 699
32 1 40 41
33 2 719 720
34 2 215 216
35 1 589 590
36 1 214 215
37 1 607 608
38 1 268 269
39 2 608 609
40 2 269 270
41 2 548 549
42 1 490 491
43 2 566 567
44 1 238 239
45 2 239 240
46 2 518 519
47 1 76 77
48 2 497 498
49 2 77 78
50 1 496 497
51 1 469 470
52 1 4 5
53 2 470 471
54 1 319 320
55 1 517 518
56 1 568 569
57 2 467 468
58 2 308 309
59 1 466 467
60 1 307 308
61 1 571 572
62 1 406 407
63 3 1075 1076
64 3 1075 1077
65 2 569 570
66 2 572 573
67 1 616 617
68 1 457 458
69 2 458 459
70 1 886 887
71 1 166 167
72 2 617 618
73 2 887 888
74 1 154 155
75 2 731 732
76 2 167 168
77 2 905 906
78 1 781 782
79 1 730 731
80 2 383 384
81 2 491 492
82 1 637 638
83 1 382 383
84 2 638 639
85 1 418 419
86 2 419 420
87 1 79 80
88 2 173 174
89 1 172 173
90 2 602 603
91 1 601 602
92 1 631 632
93 2 284 285
94 1 475 476
95 2 476 477
96 2 932 933
97 1 283 284
98 1 13 14
99 2 827 828
100 1 688 689
101 2 818 819
102 2 911 912
103 1 910 911
104 2 689 690
105 1 817 818
106 2 950 951
107 1 940 941
108 2 185 186
109 1 529 530
110 2 530 531
111 1 145 146
112 2 146 147
113 1 271 272
114 2 272 273
115 1 718 719
116 1 64 65
117 2 884 885
118 2 275 276
119 1 742 743
120 2 743 744
121 1 274 275
122 1 847 848
123 2 848 849
124 1 883 884
125 2 230 231
126 1 403 404
127 2 455 456
128 1 931 932
129 2 341 342
130 2 320 321
131 1 454 455
132 2 701 702
133 1 340 341
134 1 700 701
135 1 223 224
136 2 224 225
137 1 952 953
138 2 407 408
139 2 758 759
140 1 421 422
141 2 521 522
142 1 520 521
143 2 422 423
144 1 757 758
145 1 109 110
146 2 110 111
147 2 794 795
148 2 941 942
149 2 221 222
150 2 155 156
151 2 23 24
152 1 694 695
153 1 22 23
154 2 314 315
155 1 313 314
156 2 695 696
157 1 289 290
158 2 290 291
159 1 160 161
160 1 829 830
161 1 538 539
162 2 425 426
163 2 344 345
164 2 539 540
165 2 194 195
166 2 830 831
167 1 409 410
168 1 193 194
169 2 410 411
170 1 424 425
171 2 716 717
172 2 143 144
173 1 142 143
174 2 389 390
175 2 92 93
176 2 449 450
177 2 809 810
178 1 91 92
179 1 448 449
180 2 29 30
181 2 596 597
182 2 212 213
183 1 211 212
184 1 949 950
185 1 163 164
186 1 595 596
187 1 826 827
188 2 164 165
189 1 481 482
190 2 482 483
191 1 427 428
192 2 815 816
193 2 65 66
194 1 814 815
195 1 7 8
196 2 293 294
197 2 8 9
198 2 563 564
199 1 622 623
200 2 623 624
201 1 292 293
202 2 206 207
203 1 205 206
204 2 764 765
205 3 1024 1025
206 3 1024 1026
207 2 641 642
208 1 808 809
209 2 380 381
210 1 388 389
211 2 278 279
212 2 56 57
213 1 277 278
214 1 55 56
215 1 772 773
216 2 179 180
217 2 773 774
218 1 178 179
219 1 28 29
220 2 464 465
221 1 463 464
222 1 439 440
223 2 557 558
224 1 556 557
225 2 131 132
226 2 398 399
227 1 397 398
228 1 130 131
229 2 440 441
230 2 494 495
231 1 415 416
232 2 416 417
233 2 821 822
234 1 820 821
235 1 514 515
236 2 188 189
237 1 955 956
238 2 956 957
239 2 515 516
240 2 332 333
241 1 877 878
242 2 203 204
243 1 331 332
244 1 352 353
245 2 140 141
246 2 353 354
247 2 149 150
248 1 715 716
249 2 122 123
250 1 625 626
251 2 626 627
252 2 233 234
253 1 232 233
254 1 316 317
255 2 770 771
256 1 121 122
257 2 581 582
258 1 727 728
259 2 728 729
260 2 251 252
261 2 317 318
262 1 250 251
263 1 124 125
264 2 86 87
265 1 85 86
266 2 797 798
267 1 796 797
268 1 82 83
269 2 125 126
270 2 83 84
271 1 754 755
272 2 671 672
273 1 670 671
274 2 761 762
275 2 755 756
276 1 52 53
277 2 53 54
278 1 760 761
279 1 676 677
280 2 170 171
281 1 169 170
282 2 677 678
283 1 763 764
284 2 917 918
285 2 101 102
286 2 248 249
287 1 247 248
288 1 640 641
289 1 916 917
290 1 100 101
291 1 580 581
292 1 118 119
293 2 119 120
294 1 190 191
295 2 479 480
296 1 769 770
297 2 800 801
298 1 799 800
299 1 598 599
300 2 599 600
301 2 869 870
302 1 928 929
303 1 655 656
304 1 301 302
305 1 868 869
306 2 656 657
307 1 934 935
308 1 505 506
309 2 506 507
310 2 935 936
311 2 302 303
312 1 682 683
313 1 187 188
314 1 196 197
315 2 197 198
316 2 737 738
317 1 736 737
318 2 653 654
319 1 652 653
320 2 356 357
321 1 904 905
322 2 896 897
323 2 878 879
324 1 139 140
325 1 895 896
326 1 355 356
327 3 1036 1037
328 3 1036 1038
329 1 478 479
330 1 325 326
331 2 326 327
332 2 191 192
333 2 62 63
334 2 782 783
335 2 338 339
336 2 227 228
337 1 226 227
338 1 337 338
339 2 5 6
340 2 329 330
341 1 613 614
342 1 394 395
343 1 706 707
344 1 745 746
345 2 746 747
346 2 788 789
347 2 851 852
348 2 245 246
349 1 244 245
350 1 850 851
351 2 707 708
352 1 787 788
353 1 412 413
354 2 413 414
355 3 1009 1010
356 3 1009 1011
357 1 802 803
358 2 803 804
359 2 299 300
360 1 298 299
361 2 740 741
362 1 220 221
363 1 739 740
364 1 724 725
365 1 823 824
366 2 824 825
367 2 611 612
368 1 304 305
369 1 253 254
370 2 305 306
371 2 254 255
372 1 610 611
373 2 725 726
374 2 722 723
375 1 328 329
376 2 650 651
377 2 266 267
378 1 265 266
379 1 649 650
380 1 721 722
381 2 485 486
382 2 812 813
383 1 811 812
384 1 805 806
385 2 113 114
386 1 112 113
387 3 1069 1070
388 3 1069 1071
389 2 137 138
390 2 107 108
391 1 136 137
392 2 116 117
393 1 115 116
394 1 310 311
395 1 106 107
396 1 286 287
397 1 667 668
398 2 668 669
399 2 920 921
400 1 919 920
401 2 287 288
402 1 853 854
403 1 946 947
404 2 947 948
405 1 544 545
406 1 748 749
407 2 749 750
408 1 565 566
409 1 547 548
410 3 1054 1055
411 3 1054 1056
412 1 67 68
413 2 68 69
414 2 575 576
415 2 866 867
416 1 229 230
417 2 395 396
418 2 614 615
419 3 1072 1073
420 3 1072 1074
421 2 752 753
422 1 751 752
423 1 775 776
424 2 776 777
425 1 148 149
426 2 200 201
427 1 379 380
428 2 953 954
429 1 841 842
430 2 551 552
431 1 550 551
432 1 793 794
433 2 842 843
434 2 242 243
435 1 922 923
436 1 241 242
437 1 256 257
438 2 257 258
439 1 217 218
440 2 587 588
441 2 218 219
442 3 1027 1028
443 3 1027 1029
444 1 586 587
445 2 161 162
446 2 296 297
447 2 35 36
448 1 34 35
449 1 508 509
450 1 343 344
451 2 908 909
452 1 907 908
453 2 509 510
454 1 661 662
455 2 662 663
456 1 889 890
457 1 958 959
458 2 632 633
459 2 374 375
460 1 373 374
461 1 709 710
462 1 943 944
463 1 199 200
464 2 503 504
465 1 502 503
466 2 857 858
467 1 856 857
468 1 592 593
469 2 923 924
470 2 473 474
471 2 926 927
472 1 151 152
473 2 152 153
474 2 392 393
475 1 925 926
476 1 391 392
477 2 350 351
478 2 14 15
479 1 472 473
480 2 863 864
481 2 209 210
482 1 208 209
483 1 349 350
484 1 862 863
485 2 854 855
486 1 103 104
487 2 104 105
488 2 524 525
489 1 523 524
490 1 646 647
491 1 184 185
492 2 404 405
493 1 37 38
494 1 295 296
495 2 959 960
496 2 158 159
497 1 865 866
498 1 157 158
499 2 38 39
500 2 647 648
501 2 44 45
502 1 1 2
503 2 20 21
504 1 19 20
505 2 2 3
506 1 43 44
507 2 527 528
508 1 322 323
509 2 281 282
510 1 280 281
511 1 436 437
512 1 88 89
513 2 89 90
514 1 97 98
515 2 845 846
516 2 98 99
517 2 704 705
518 1 25 26
519 2 26 27
520 1 703 704
521 2 323 324
522 1 844 845
523 1 493 494
524 2 377 378
525 1 376 377
526 1 73 74
527 2 665 666
528 2 74 75
529 1 664 665
530 1 49 50
531 2 50 51
532 2 536 537
533 2 47 48
534 1 535 536
535 1 46 47
536 2 893 894
537 1 892 893
538 2 368 369
539 2 890 891
540 1 202 203
541 1 367 368
542 3 1042 1043
543 3 1042 1044
544 1 526 527
545 1 364 365
546 2 461 462
547 1 604 605
548 2 365 366
549 2 644 645
550 2 944 945
551 2 593 594
552 2 605 606
553 2 710 711
554 1 643 644
555 2 434 435
556 1 433 434
557 2 236 237
558 1 235 236
559 2 875 876
560 2 386 387
561 1 511 512
562 1 874 875
563 2 836 837
564 1 835 836
565 2 488 489
566 1 181 182
567 1 487 488
568 3 1063 1064
569 3 1063 1065
570 1 94 95
571 2 95 96
572 2 182 183
573 2 452 453
574 2 428 429
575 2 692 693
576 1 460 461
577 1 562 563
578 1 871 872
579 2 872 873
580 3 1048 1049
581 3 1048 1050
582 1 691 692
583 2 59 60
584 1 58 59
585 1 361 362
586 2 362 363
587 2 929 930
588 1 370 371
589 1 70 71
590 2 71 72
591 2 134 135
592 2 11 12
593 1 133 134
594 2 659 660
595 1 658 659
596 2 371 372
597 1 10 11
598 1 334 335
599 2 500 501
600 2 734 735
601 1 733 734
602 2 260 261
603 1 628 629
604 2 629 630
605 2 806 807
606 1 937 938
607 1 499 500
608 2 938 939
609 1 541 542
610 1 259 260
611 2 881 882
612 2 683 684
613 1 880 881
614 2 791 792
615 2 176 177
616 1 175 176
617 1 790 791
618 2 674 675
619 1 61 62
620 1 766 767
621 2 542 543
622 1 673 674
623 2 437 438
624 2 767 768
625 1 577 578
626 2 578 579
627 2 446 447
628 1 679 680
629 2 680 681
630 2 560 561
631 1 559 560
632 2 359 360
633 1 358 359
634 1 445 446
635 1 442 443
636 3 1051 1052
637 3 1051 1053
638 1 784 785
639 1 385 386
640 2 512 513
641 2 785 786
642 2 443 444
643 2 17 18
644 1 16 17
645 1 619 620
646 1 262 263
647 2 545 546
648 1 553 554
649 2 554 555
650 1 451 452
651 1 532 533
652 2 533 534
653 2 620 621
654 2 779 780
655 1 778 779
656 2 635 636
657 2 899 900
658 2 833 834
659 2 32 33
660 1 832 833
661 2 263 264
662 1 31 32
663 1 634 635
664 1 574 575
665 2 335 336
666 1 898 899

Angles

1 1 589 590 591
2 1 430 431 432
3 1 127 128 129
4 1 346 347 348
5 1 79 80 81
6 1 838 839 840
7 1 901 902 903
8 1 583 584 585
9 2 1067 1066 1068
10 1 859 860 861
11 1 712 713 714
12 1 685 686 687
13 1 913 914 915
14 1 310 311 312
15 1 400 401 402
16 1 40 41 42
17 1 697 698 699
18 1 718 719 720
19 1 214 215 216
20 1 607 608 609
21 1 268 269 270
22 1 547 548 549
23 1 565 566 567
24 1 238 239 240
25 1 517 518 519
26 1 496 497 498
27 1 76 77 78
28 1 469 470 471
29 1 466 467 468
30 1 307 308 309
31 2 1076 1075 1077
32 1 568 569 570
33 1 571 572 573
34 1 457 458 459
35 1 616 617 618
36 1 886 887 888
37 1 730 731 732
38 1 166 167 168
39 1 904 905 906
40 1 382 383 384
41 1 490 491 492
42 1 637 638 639
43 1 418 419 420
44 1 172 173 174
45 1 601 602 603
46 1 283 284 285
47 1 475 476 477
48 1 931 932 933
49 1 826 827 828
50 1 817 818 819
51 1 910 911 912
52 1 688 689 690
53 1 949 950 951
54 1 184 185 186
55 1 529 530 531
56 1 145 146 147
57 1 271 272 273
58 1 883 884 885
59 1 274 275 276
60 1 742 743 744
61 1 847 848 849
62 1 229 230 231
63 1 454 455 456
64 1 340 341 342
65 1 319 320 321
66 1 700 701 702
67 1 223 224 225
68 1 406 407 408
69 1 757 758 759
70 1 520 521 522
71 1 421 422 423
72 1 109 110 111
73 1 793 794 795
74 1 940 941 942
75 1 220 221 222
76 1 154 155 156
77 1 22 23 24
78 1 313 314 315
79 1 694 695 696
80 1 289 290 291
81 1 424 425 426
82 1 343 344 345
83 1 538 539 540
84 1 193 194 195
85 1 829 830 831
86 1 409 410 411
87 1 715 716 717
88 1 142 143 144
89 1 388 389 390
90 1 91 92 93
91 1 448 449 450
92 1 808 809 810
93 1 28 29 30
94 1 595 596 597
95 1 211 212 213
96 1 163 164 165
97 1 481 482 483
98 1 814 815 816
99 1 64 65 66
100 1 292 293 294
101 1 7 8 9
102 1 562 563 564
103 1 622 623 624
104 1 205 206 207
105 1 763 764 765
106 2 1025 1024 1026
107 1 640 641 642
108 1 379 380 381
109 1 277 278 279
110 1 55 56 57
111 1 178 179 180
112 1 772 773 774
113 1 463 464 465
114 1 556 557 558
115 1 130 131 132
116 1 397 398 399
117 1 439 440 441
118 1 493 494 495
119 1 415 416 417
120 1 820 821 822
121 1 187 188 189
122 1 955 956 957
123 1 514 515 516
124 1 331 332 333
125 1 202 203 204
126 1 139 140 141
127 1 352 353 354
128 1 148 149 150
129 1 121 122 123
130 1 625 626 627
131 1 232 233 234
132 1 769 770 771
133 1 580 581 582
134 1 727 728 729
135 1 250 251 252
136 1 316 317 318
137 1 85 86 87
138 1 796 797 798
139 1 124 125 126
140 1 82 83 84
141 1 670 671 672
142 1 760 761 762
143 1 754 755 756
144 1 52 53 54
145 1 169 170 171
146 1 676 677 678
147 1 916 917 918
148 1 100 101 102
149 1 247 248 249
150 1 118 119 120
151 1 478 479 480
152 1 799 800 801
153 1 598 599 600
154 1 868 869 870
155 1 655 656 657
156 1 505 506 507
157 1 934 935 936
158 1 301 302 303
159 1 196 197 198
160 1 736 737 738
161 1 652 653 654
162 1 355 356 357
163 1 895 896 897
164 1 877 878 879
165 2 1037 1036 1038
166 1 325 326 327
167 1 190 191 192
168 1 61 62 63
169 1 781 782 783
170 1 337 338 339
171 1 226 227 228
172 1 4 5 6
173 1 328 329 330
174 1 745 746 747
175 1 787 788 789
176 1 850 851 852
177 1 244 245 246
178 1 706 707 708
179 1 412 413 414
180 2 1010 1009 1011
181 1 802 803 804
182 1 298 299 300
183 1 739 740 741
184 1 823 824 825
185 1 610 611 612
186 1 304 305 306
187 1 253 254 255
188 1 724 725 726
189 1 721 722 723
190 1 649 650 651
191 1 265 266 267
192 1 484 485 486
193 1 811 812 813
194 1 112 113 114
195 2 1070 1069 1071
196 1 136 137 138
197 1 106 107 108
198 1 115 116 117
199 1 667 668 669
200 1 919 920 921
201 1 286 287 288
202 1 946 947 948
203 1 748 749 750
204 2 1055 1054 1056
205 1 67 68 69
206 1 574 575 576
207 1 865 866 867
208 1 394 395 396
209 1 613 614 615
210 2 1073 1072 1074
211 1 751 752 753
212 1 775 776 777
213 1 199 200 201
214 1 952 953 954
215 1 550 551 552
216 1 841 842 843
217 1 241 242 243
218 1 256 257 258
219 1 586 587 588
220 1 217 218 219
221 2 1028 1027 1029
222 1 160 161 162
223 1 295 296 297
224 1 34 35 36
225 1 907 908 909
226 1 508 509 510
227 1 661 662 663
228 1 631 632 633
229 1 373 374 375
230 1 502 503 504
231 1 856 857 858
232 1 922 923 924
233 1 472 473 474
234 1 925 926 927
235 1 151 152 153
236 1 391 392 393
237 1 349 350 351
238 1 13 14 15
239 1 862 863 864
240 1 208 209 210
241 1 853 854 855
242 1 103 104 105
243 1 523 524 525
244 1 403 404 405
245 1 958 959 960
246 1 157 158 159
247 1 37 38 39
248 1 646 647 648
249 1 43 44 45
250 1 19 20 21
251 1 1 2 3
252 1 526 527 528
253 1 280 281 282
254 1 88 89 90
255 1 844 845 846
256 1 97 98 99
257 1 703 704 705
258 1 25 26 27
259 1 322 323 324
260 1 376 377 378
261 1 664 665 666
262 1 73 74 75
263 1 49 50 51
264 1 535 536 537
265 1 46 47 48
266 1 892 893 894
267 1 367 368 369
268 1 889 890 891
269 2 1043 1042 1044
270 1 460 461 462
271 1 364 365 366
272 1 643 644 645
273 1 943 944 945
274 1 592 593 594
275 1 604 605 606
276 1 709 710 711
277 1 433 434 435
278 1 235 236 237
279 1 874 875 876
280 1 385 386 387
281 1 835 836 837
282 1 487 488 489
283 2 1064 1063 1065
284 1 94 95 96
285 1 181 182 183
286 1 451 452 453
287 1 427 428 429
288 1 691 692 693
289 1 871 872 873
290 2 1049 1048 1050
291 1 58 59 60
292 1 361 362 363
293 1 928 929 930
294 1 70 71 72
295 1 133 134 135
296 1 10 11 12
297 1 658 659 660
298 1 370 371 372
299 1 499 500 501
300 1 733 734 735
301 1 259 260 261
302 1 628 629 630
303 1 805 806 807
304 1 937 938 939
305 1 880 881 882
306 1 682 683 684
307 1 790 791 792
308 1 175 176 177
309 1 673 674 675
310 1 541 542 543
311 1 436 437 438
312 1 766 767 768
313 1 577 578 579
314 1 445 446 447
315 1 679 680 681
316 1 559 560 561
317 1 358 359 360
318 2 1052 1051 1053
319 1 511 512 513
320 1 784 785 786
321 1 442 443 444
322 1 16 17 18
323 1 544 545 546
324 1 553 554 555
325 1 532 533 534
326 1 619 620 621
327 1 778 779 780
328 1 634 635 636
329 1 898 899 900
330 1 832 833 834
331 1 31 32 33
332 1 262 263 264
333 1 334 335 336
