LAMMPS data file via write_data, version 29 Aug 2024, timestep = 120000, units = real

1050 atoms
5 atom types
700 bonds
3 bond types
350 angles
2 angle types

0 30 xlo xhi
0 30 ylo yhi
0 30 zlo zhi

Masses

1 15.035
2 12.0107
3 14.0067
4 12.0107
5 15.9994

Atoms # full

179 60 2 0.129 12.980711711884389 11.039934066662468 5.282231104192535 0 0 0
196 66 1 0.269 4.594906779011687 5.998433998640519 3.7781781959516354 0 0 0
197 66 2 0.129 3.8121227185679154 7.231761587293968 4.265776569391915 0 0 0
198 66 3 -0.398 3.2240180705591857 8.158359002925161 4.632108594112956 0 0 0
221 74 2 0.129 8.25077435973384 11.486981347591508 6.507863286119135 0 0 0
226 76 1 0.269 11.785270168750301 1.2323946258500054 9.913985042078838 0 0 0
227 76 2 0.129 10.70332161562516 2.1424327712498608 10.524573203041507 0 0 0
228 76 3 -0.398 9.890455072790234 2.8261432480210513 10.983307295401124 0 0 0
295 99 1 0.269 6.944436940375973 5.9183996176161475 7.228792384450218 0 0 0
296 99 2 0.129 6.430682867227837 4.5054117323872065 6.895442735403169 0 0 0
297 99 3 -0.398 6.044700099284725 3.4438357692639032 6.644997576995742 0 0 0
322 108 1 0.269 10.918046307491194 5.509223704102336 12.181329975176014 0 0 0
323 108 2 0.129 9.943578190274156 5.61111251031431 13.369450574987637 0 0 0
412 138 1 0.269 8.655448266681278 5.829353641947608 3.1581902466999203 0 0 0
413 138 2 0.129 7.666494837607287 6.276037550598946 2.0654667680121888 0 0 0
414 138 3 -0.398 6.9234954106991 6.611630591059723 1.244505037595495 0 0 0
440 147 2 0.129 10.155535104575579 7.214879862646877 7.6290787039331285 0 0 0
441 147 3 -0.398 10.085087896606444 6.238351880244651 7.012572993923358 0 0 0
958 320 1 0.269 6.54412231575695 9.560425238396023 2.52838851070383 0 0 1
493 165 1 0.269 7.011684871172112 4.241844107181442 12.404069901256731 0 0 0
439 147 1 0.269 10.249302347680564 8.514666459794178 8.449665387956504 0 0 0
959 320 2 0.129 6.959861321518244 8.951588242367066 3.8804530769708 0 0 1
86 29 2 0.129 0.6082346653214783 11.664316594145154 4.8893114915492415 0 0 0
85 29 1 0.269 0.45323922109393094 10.13238324909131 4.8618044273533245 0 0 0
222 74 3 -0.398 8.731286050626702 10.930450658403595 7.401189154381715 0 0 0
305 102 2 0.129 8.754387831665662 1.1347769181190188 7.164606869489767 0 0 0
304 102 1 0.269 9.0748310089931 2.6281552188544843 7.361425113045134 0 0 0
960 320 3 -0.398 7.272205496625918 8.49416979794791 4.896257429679166 0 0 1
220 74 1 0.269 7.611199593981894 12.22773956829106 5.318821075985711 0 0 0
821 274 2 0.129 13.15881122295759 5.290681736965968 4.375017730641438 0 0 1
494 165 2 0.129 7.607702597219065 4.938438378188192 11.16668584938035 0 0 0
178 60 1 0.269 11.531807049945021 10.527783501315426 5.1823457748140935 0 0 0
495 165 3 -0.398 8.055489940749148 5.461788749327681 10.237040818197901 0 0 0
971 324 5 -0.35 1.4215962986139687 6.679338654567557 10.13733254375004 1 0 0
990 330 5 -0.35 5.5763811151720155 9.259472398574735 12.753456533342664 0 0 0
970 324 4 0.7 1.9323233273760474 7.2566174231300415 9.270437437373872 1 0 0
988 330 4 0.7 5.149254934349183 8.56268838582282 11.930258340178622 0 0 0
972 324 5 -0.35 2.443050356138127 7.833896191692529 8.403542330997702 1 0 0
306 102 3 -0.398 8.51363928869953 0.012803740228803484 7.0167375787147295 0 0 0
160 54 1 0.269 3.4346585519877295 12.530614640535383 1.815821699680705 0 0 0
989 330 5 -0.35 4.722128753526349 7.865904373070903 11.107060147014579 0 0 0
161 54 2 0.129 2.3131206552072916 13.535158025124407 1.4923323883216384 0 0 0
25 9 1 0.269 9.118554498828155 8.928462096703191 12.794760121694862 0 0 0
163 55 1 0.269 4.378693742334881 29.140234828654314 14.54740351983749 0 0 0
627 209 3 -0.398 4.528059611035438 10.437625695956894 9.49011917171223 0 0 0
626 209 2 0.129 4.613680980794392 10.17859680073831 8.365742894622297 0 0 0
625 209 1 0.269 4.727645466039669 9.833821953169933 6.8691660003107184 0 0 0
1009 337 4 0.7 4.65844397281139 3.4289882444521047 9.759016111078395 0 0 0
180 60 3 -0.398 14.06927190270507 11.424712121277102 5.357274822433351 0 0 0
820 274 1 0.269 11.80022141539399 6.01580670604998 4.369772352168262 0 0 1
981 327 5 -0.35 12.185592729956285 2.272997014642585 6.088786334214009 0 0 0
979 327 4 0.7 12.815542867927112 1.8386335237025524 5.216954250949727 0 0 0
966 322 5 -0.35 9.016665029995371 12.179141103095414 1.2959833364237041 0 0 0
693 231 3 -0.398 10.149925581312225 3.299210060911023 3.374146626805506 0 0 1
1010 337 5 -0.35 5.598874563590142 2.750823814504346 9.723192796304744 0 0 0
1011 337 5 -0.35 3.7180133820326384 4.107152674399862 9.794839425852045 0 0 0
692 231 2 0.129 10.633479325894475 2.7243126710227434 2.49419335122772 0 0 1
407 136 2 0.129 4.444235469790929 3.8722778711640133 0.6601483591637464 0 1 0
408 136 3 -0.398 4.669091249280857 2.976302993787836 1.356795972768174 0 1 0
187 63 1 0.269 6.848375205239935 1.2524438477932314 3.5472629211406725 0 1 0
980 327 5 -0.35 13.445493005897942 1.4042700327625197 4.345122167685446 0 0 0
254 85 2 0.129 1.9700317029553829 0.5734801296743458 9.510543549282845 0 0 0
152 51 2 0.129 11.833738403327716 11.51157997784472 9.931886214539913 0 0 0
24 8 3 -0.398 11.388240702246447 13.699299854209722 3.4641317779106764 0 0 0
87 29 3 -0.398 0.7246825412768493 12.81525612676028 4.909977513156173 0 0 0
151 51 1 0.269 12.375853786268413 12.033114319968291 11.275654364767071 0 0 0
153 51 3 -0.398 11.426447820170324 11.119751903924605 8.922314948427694 0 0 0
253 85 1 0.269 1.7366250397739322 0.6071355460556923 11.032380808167945 0 0 0
783 261 3 -0.398 4.455868609204924 1.9677601506458091 12.600420250130973 0 0 0
817 273 1 0.269 2.825444131841487 8.928414503932693 1.1924974319688388 0 0 1
23 8 2 0.129 12.38617900354625 14.250190686070926 3.6623423683701066 0 0 0
188 63 2 0.129 6.559698607107833 0.13023446005989603 2.5329099688728984 0 1 0
691 231 1 0.269 11.277103151872579 1.9591078478352262 1.3229504433713737 0 0 1
136 46 1 0.269 0.6146593831778586 4.28483294470071 12.627522254006655 1 0 0
79 27 1 0.269 8.206516755812189 13.055518145030755 9.599703625488283 0 0 0
947 316 2 0.129 10.73974330744365 9.098654657453464 1.5700049508298901 0 0 1
787 263 1 0.269 7.237215010772216 0.41570495078008196 11.172974543032804 0 0 0
186 62 3 -0.398 12.72002517429905 8.414432281164169 11.141496514443437 0 0 0
52 18 1 0.269 13.68263966104169 4.959006871637964 7.930375805684218 0 0 0
255 85 3 -0.398 2.145389825878073 0.5481948590553745 8.367189193094497 0 0 0
457 153 1 0.269 2.9359154489970507 2.453216406797866 4.175458449105194 0 1 0
204 68 3 -0.398 26.099641145449695 19.431257693417425 0.25982771396519144 0 0 0
1049 350 5 -0.35 7.086627857227378 12.734769660141492 12.522688798956645 0 0 0
1005 335 5 -0.35 13.660205539203972 28.672697374195433 14.22063991242908 0 -1 0
185 62 2 0.129 13.56060525250295 7.888137603264967 11.737389159255736 0 0 0
948 316 3 -0.398 10.110867756889666 8.16390142992983 1.833445542898617 0 0 1
36 12 3 -0.398 1.447825996472765 4.811039251297864 2.9063772244290487 1 1 0
1048 350 4 0.7 6.741572361356272 13.602859158208068 13.210407730000364 0 0 0
312 104 3 -0.398 3.113855241730257 12.362554703635736 12.770834599077482 1 0 0
965 322 5 -0.35 8.67835154350287 14.391814094655267 0.6860470960841307 0 0 0
311 104 2 0.129 3.295154821677697 13.180958939359218 11.973342298637336 1 0 0
310 104 1 0.269 3.5364697336215682 14.270278319665318 10.911857300644405 1 0 0
432 144 3 -0.398 4.75123809181764 6.409085108876773 14.131868235587072 0 0 0
782 261 2 0.129 4.313571747604914 2.6059045539579198 13.554973718355646 0 0 0
70 24 1 0.269 1.1117902756419817 10.796083328058348 10.577025054575367 1 0 0
766 256 1 0.269 26.241239216500123 29.064812096225303 14.47805944342517 0 0 0
458 153 2 0.129 3.004814482856243 0.9294131971653626 4.387299666640873 0 1 0
26 9 2 0.129 8.269658503447253 9.320754076330449 14.018313386471865 0 0 0
324 108 3 -0.398 9.211461559352006 5.687661438098244 14.262084038612345 0 0 0
591 197 3 -0.398 12.325917409102088 5.739528114830225 0.7712468947136989 0 0 1
964 322 4 0.7 8.84750828674912 13.285477598875339 0.9910152162539195 0 0 0
53 18 2 0.129 13.87513291109899 4.416660847621351 9.358804011411047 0 0 0
46 16 1 0.269 0.12358830573997881 2.9569294301101463 6.782841588537738 0 1 0
35 12 2 0.129 0.6744694736286843 5.621434807050575 3.195907415930179 1 1 0
366 122 3 -0.398 4.295872396894894 12.746391038940532 4.81854562948555 0 0 0
10 4 1 0.269 2.8083762896538578 0.5138590122844422 0.33910299843885655 0 1 0
946 316 1 0.269 11.576794602044455 10.342837864356142 1.2193580089233769 0 0 1
822 274 3 -0.398 14.179517980977774 4.7458962894138885 4.378958576676156 0 0 1
111 37 3 -0.398 13.933317164055772 7.893465321005192 6.549530538943678 0 0 0
110 37 2 0.129 14.06727981957369 8.724096472835681 7.343731330013331 0 0 0
537 179 3 -0.398 14.791524604645993 9.295528321265436 1.5723932703986734 0 0 1
486 162 3 -0.398 15.809319398859161 2.219423939210875 2.2031027276801587 0 0 1
485 162 2 0.129 15.742549636759225 3.3299126198998192 1.8852888058163395 0 0 1
109 37 1 0.269 14.245587934956225 9.8296902272168 8.400835235153576 0 0 0
184 62 1 0.269 14.679441311650757 7.1876243759833995 12.530539265574616 0 0 0
54 18 3 -0.398 14.019752839875808 4.009196984123154 10.431980267272046 0 0 0
536 179 2 0.129 15.141582332409758 8.987757433922397 2.631348259119486 0 0 1
480 160 3 -0.398 16.772370189531348 6.88713689107528 9.717272242697778 0 0 0
82 28 1 0.269 10.605386920280111 28.891684098428474 13.565221635873813 0 0 0
29 10 2 0.129 25.273891600554933 3.0438024961652483 10.950636401006003 0 0 0
31 11 1 0.269 22.898856724263236 6.76872888812832 12.139789987229568 0 0 0
32 11 2 0.129 23.852183502348495 7.112065485690387 10.980096909315806 0 0 0
33 11 3 -0.398 24.568416672637223 7.370013825547083 10.108821005974104 0 0 0
94 32 1 0.269 18.233525094432377 9.527901487875639 11.08314453737748 0 0 0
95 32 2 0.129 16.90722500140946 10.282268157379846 10.874676335512444 0 0 0
124 42 1 0.269 19.12134933230159 5.6939189438825775 11.604794346622763 0 0 0
125 42 2 0.129 19.71345069336697 5.57060756063885 13.021060663735213 0 0 0
479 160 2 0.129 17.093587437129106 7.108962571227444 8.628115758315978 0 0 0
478 160 1 0.269 17.521136755452833 7.404218878430839 7.178417412639256 0 0 0
175 59 1 0.269 22.016883066672303 2.355675009405354 12.557212494617456 0 0 0
415 139 1 0.269 21.129738159564834 8.895529027175886 9.078877189269617 0 0 0
416 139 2 0.129 22.163763420461592 9.77655273646471 8.35348833941161 0 0 0
417 139 3 -0.398 22.940625256083372 10.438464705066766 7.8085046385767285 0 0 0
748 250 1 0.269 16.46083938518832 1.5649004493397736 5.327924310494092 0 0 1
749 250 2 0.129 15.72033520662477 1.0625417355419189 6.581275531900748 0 0 1
90 30 3 -0.398 21.93510390894261 8.324873405521128 5.442015801235959 0 0 0
89 30 2 0.129 21.22221419049041 7.683605085337109 4.79454982463671 0 0 0
88 30 1 0.269 20.273337642161632 6.830058660891654 3.9327541427327795 0 0 0
101 34 2 0.129 21.150642357882806 4.961199368271479 7.859150874353108 -1 0 0
102 34 3 -0.398 20.414139185201773 5.813012134135879 8.124908449111558 -1 0 0
100 34 1 0.269 22.130949087294034 3.827412281468386 7.505419962401494 -1 0 0
286 96 1 0.269 20.292295375726976 12.416364451587459 6.345871400183105 0 0 0
303 101 3 -0.398 20.039154620506945 2.1971860045343843 5.793302959815609 0 0 0
421 141 1 0.269 24.42751493325178 4.029555330048823 2.1799685396244426 0 1 0
908 303 2 0.129 18.767242497363732 10.471833859513804 3.5529615390786993 0 0 1
907 303 1 0.269 19.311621557152556 10.535161931358038 2.113780871274929 0 0 1
302 101 2 0.129 19.795188952641276 2.506879113332248 4.705543826888512 0 0 0
317 106 2 0.129 25.747897810750505 7.980874777340891 1.998608970658042 0 0 0
316 106 1 0.269 25.08797383158131 8.376455242884793 3.3326316230132123 0 0 0
631 211 1 0.269 23.384969688932006 11.509133872101415 4.703062814269269 0 0 1
422 141 2 0.129 23.275619225803343 4.368549127352346 3.1442400182817316 0 1 0
318 106 3 -0.398 26.243697839256185 7.683675687318622 0.996359484440553 0 0 0
474 158 3 -0.398 18.21101869781536 2.708184250301274 11.062249561780899 0 1 0
257 86 2 0.129 25.21018196473541 5.890689074957857 6.058094346913078 -1 0 0
473 158 2 0.129 17.84013438205821 3.1313040619433714 10.05127802443604 0 1 0
909 303 3 -0.398 18.358251216730185 10.42425556138148 4.634216105733872 0 0 1
472 158 1 0.269 17.346476779408242 3.694488599479096 8.70564607325965 0 1 0
287 96 2 0.129 19.497686762645188 11.741497249514673 7.479340152104619 0 0 0
632 211 2 0.129 22.80273922557812 11.173071731334739 3.3175412788589274 0 0 1
250 84 1 0.269 24.720778367621794 10.65629876705715 11.2341652730597 0 0 0
96 32 3 -0.398 15.910777463989003 10.849022856481385 10.718054446189164 0 0 0
258 86 3 -0.398 25.790792926188523 5.466965247568713 5.151453277060723 -1 0 0
134 45 2 0.129 21.04011828506867 10.035391818446634 13.226986957582643 0 0 0
301 101 1 0.269 19.470463690313586 2.919089474221366 3.2577053958533218 0 0 0
535 179 1 0.269 15.60751915242376 8.578105604615326 4.040847552663178 0 0 1
288 96 3 -0.398 18.90069834359608 11.234470397048302 8.330913753385913 0 0 0
176 59 2 0.129 23.15510431824733 1.785646981062016 13.423884537183799 0 0 0
423 141 3 -0.398 22.410201476765785 4.623234727014797 3.86869592789633 0 1 0
166 56 1 0.269 15.08991046097597 3.341599935048927 13.057295886548875 0 0 0
135 45 3 -0.398 21.564682554144607 10.034578950902539 12.195734967594207 0 0 0
248 83 2 0.129 25.32277576247492 1.939878780861932 7.416636095640382 0 1 0
251 84 2 0.129 24.753430218065194 9.941872298556826 12.598030617501237 0 0 0
249 83 3 -0.398 24.653680797922714 1.5730390527240679 8.286342679650689 0 1 0
941 314 2 0.129 26.913462889680538 10.786863482527954 6.354161457638745 0 0 0
940 314 1 0.269 26.397088227350615 10.728233464884811 7.803823393793287 0 0 0
330 110 3 -0.398 19.488853979725015 12.539236070702072 12.321148024098378 0 0 0
256 86 1 0.269 24.43737221483239 6.454677574680663 7.264859470139207 -1 0 0
810 270 3 -0.398 18.418034890845888 6.477531466458531 1.322577778226659 0 0 1
776 259 2 0.129 22.635354812082184 7.734924919126018 0.5647401636007863 0 0 1
30 10 3 -0.398 24.482510520551372 3.867658416207653 10.767261350294277 0 0 0
633 211 3 -0.398 22.365310234603797 10.92058868142107 2.276600748683754 0 0 1
750 250 3 -0.398 15.163995378963715 0.6851202862795052 7.522916676814713 0 0 1
28 10 1 0.269 26.327242389842297 1.9472267685374964 11.194713823733798 0 0 0
144 48 3 -0.398 25.205991555619846 11.496231345161647 1.3419022200075306 0 0 0
143 48 2 0.129 26.31299575561282 11.346942681746485 1.6434044524600944 0 0 0
247 83 1 0.269 26.213360244247085 2.42815292203074 6.259031826516896 0 1 0
126 42 3 -0.398 20.15829567697258 5.477963878552489 14.085099708474893 0 0 0
777 259 3 -0.398 22.439631927340734 6.725910277900354 1.095994345872331 0 0 1
809 270 2 0.129 18.53181818738786 7.168332169283295 0.4014389448225796 0 0 1
836 279 2 0.129 15.273105006834227 12.032754587453702 13.895112834393986 0 0 0
837 279 3 -0.398 14.532376127839358 11.210095400851428 14.231567274878177 0 0 0
43 15 1 0.269 15.213104263290491 12.2300633598668 0.42512710115921026 0 0 0
942 314 3 -0.398 27.301414502872568 10.830912138640366 5.265032327683675 0 0 0
952 318 1 0.269 27.51243727342453 7.099565577235774 12.729899661961165 -1 0 0
914 305 2 0.129 23.397959001877442 14.113876917135965 13.215231650967818 0 0 0
60 20 3 -0.398 26.254255466457863 13.385301495406718 9.479130469234532 0 0 0
219 73 3 -0.398 16.213004505480384 0.133014791663772 13.671624611093842 0 1 0
218 73 2 0.129 17.319313880778765 0.07902131479845391 13.33723969728482 0 1 0
170 57 2 0.129 27.918728395353128 3.313123086131567 0.2344695325466316 0 0 0
409 137 1 0.269 27.99366281743195 7.174920255746251 9.112658533911873 -1 0 0
682 228 1 0.269 16.810627099097243 12.998077642086775 5.426994670810656 0 0 1
59 20 2 0.129 26.8327393509703 13.633742416805694 10.44984283854591 0 0 0
208 70 1 0.269 23.097856992785267 13.641892355229226 9.52051205106784 0 0 0
329 110 2 0.129 19.25569087394774 13.164013791192977 11.375665731253704 0 0 0
995 332 5 -0.35 23.244813568213555 1.1836700301528418 4.552611112660739 0 1 0
968 323 5 -0.35 20.990034437803242 0.4631730626674848 2.109510491828041 0 0 0
48 16 3 -0.398 28.182447750041273 4.4338100035419155 7.933756926363753 -1 1 0
999 333 5 -0.35 14.111141774012431 13.112167610085146 8.781864652836582 0 0 0
279 93 3 -0.398 24.751670264380984 13.955190047325857 5.636524828930899 0 0 0
268 90 1 0.269 22.654575119050875 13.65990679033906 0.45334784640937165 -1 0 0
994 332 4 0.7 22.51436896196025 0.6742187125465763 5.2959212983737585 0 1 0
354 118 3 -0.398 20.262587880358737 0.12608284222834693 10.042338870822714 0 1 0
763 255 1 0.269 24.715042257887003 29.402983877403706 1.8290447418555953 0 -1 1
252 84 3 -0.398 24.77796151089832 9.405124620599112 13.622700879526471 0 0 0
986 329 5 -0.35 25.69067263819428 4.5711392357928515 13.860055133646249 0 0 0
913 305 1 0.269 22.000159739344717 13.627002581953493 13.640332348924932 0 0 0
484 162 1 0.269 15.653677178994405 4.808004727299108 1.4622694111142849 0 0 1
57 19 3 -0.398 0.07701322426635582 2.493868036233057 3.6810213941554997 1 0 0
72 24 3 -0.398 28.579105776050277 9.893679810188884 10.78912436259992 0 0 0
411 137 3 -0.398 29.463253366440718 8.577390569906598 7.338626505970416 -1 0 0
410 137 2 0.129 28.832806104593054 7.975737565277929 8.099677694820347 -1 0 0
142 48 1 0.269 27.78644991982127 11.148235212723716 2.044712523313123 0 0 0
47 16 2 0.129 29.01518769180746 3.8002353563559494 7.44001979404462 -1 1 0
169 57 1 0.269 29.112193147145636 4.235580077371726 0.5448160897066319 0 0 0
34 12 1 0.269 29.64510988401772 6.70009440589169 3.581280358809815 0 1 0
137 46 2 0.129 29.349981787873705 3.515515434676385 13.052188180007398 0 0 0
71 24 2 0.129 29.66561521840386 10.280806569616013 10.698134781812225 0 0 0
56 19 2 0.129 29.510510754263823 1.548383440484319 3.329193551762544 0 0 0
138 46 3 -0.398 28.399831152960132 2.93752818850876 13.371239138697561 0 0 0
55 19 1 0.269 28.756479808884485 0.2899164763935187 2.8609006586898102 0 0 0
105 35 3 -0.398 28.97316586295599 8.462941461676671 0.9635201183873114 0 0 0
621 207 3 -0.398 22.869634119107925 17.070964433740713 14.348026433802104 0 0 0
360 120 3 -0.398 0.6521799386672988 14.139102027611868 9.973653325356343 1 0 0
93 31 3 -0.398 28.21377032014035 0.5873289864314895 8.959976890099501 -1 1 0
829 277 1 0.269 11.562429711149331 12.437126546371807 14.939982393602309 0 0 0
953 318 2 0.129 28.82746881429459 7.671871783606546 13.290932328270912 -1 0 0
77 26 2 0.129 2.7184530905218547 17.81393689593597 0.431860461275642 0 0 0
365 122 2 0.129 3.872782913057398 13.613968696318246 5.456474541736426 0 0 0
541 181 1 0.269 2.683879326267315 22.046198590048068 2.0941071553331394 0 0 1
80 27 2 0.129 7.634875068441255 14.075734507204459 8.597713428124846 0 0 0
81 27 3 -0.398 7.205401411111273 14.84222173514925 7.8449194941316645 0 0 0
658 220 1 0.269 11.40599090272198 14.545052447109052 7.7674484381662054 0 0 0
491 164 2 0.129 4.229236408879919 25.26999285645409 2.5687894064486 1 0 1
22 8 1 0.269 13.714463345812192 14.983442095808398 3.926166317641952 0 0 0
1050 350 5 -0.35 6.396516865485166 14.470948656274647 13.898126661044083 0 0 0
427 143 1 0.269 5.402379046224189 16.12021831684121 2.388163779331649 0 0 0
492 164 3 -0.398 3.1273446884701093 25.34018811909708 2.9145584935497864 1 0 1
428 143 2 0.129 6.458328393730989 15.084049921638977 2.81586230900357 0 0 0
429 143 3 -0.398 7.251661767150059 14.305577951996776 3.1371916588934443 0 0 0
659 220 2 0.129 11.286263008549309 15.689929891568633 6.744452412502305 0 0 0
364 122 1 0.269 3.3096387426946112 14.76873930337242 6.305576118976139 0 0 0
660 220 3 -0.398 11.196311597148155 16.55007482873729 5.975876826987281 0 0 0
1 1 1 0.269 7.000603211703261 20.719703380984082 3.4361185715907583 0 0 0
2 1 2 0.129 6.259446874256106 21.67344526848033 4.39145290861456 0 0 0
3 1 3 -0.398 5.7026170804727565 22.389990309930425 5.109194355326599 0 0 0
74 25 2 0.129 10.697951301385547 16.17885354156441 10.95619599615559 0 0 0
113 38 2 0.129 9.134899313902189 25.888368803519576 1.998771635804882 0 0 0
118 40 1 0.269 10.418161783980466 23.53838355106853 4.718588981391761 0 0 0
119 40 2 0.129 10.11687765879146 24.14025604748588 6.1037161863682154 0 0 0
120 40 3 -0.398 9.89052328681504 24.592442072391645 7.144360456600526 0 0 0
241 81 1 0.269 7.326671757012648 22.867080249185857 8.131938541167946 0 0 0
242 81 2 0.129 7.686131649734203 22.946540997173482 9.627289528412707 0 0 0
261 87 3 -0.398 7.0972693255067885 27.22759195956382 10.698832838070096 0 0 0
337 113 1 0.269 10.774108525243738 20.111754597540298 6.454248439650645 0 0 0
338 113 2 0.129 11.028725296782154 20.55263951319225 7.907655055433381 0 0 0
339 113 3 -0.398 11.220018546567829 20.88387577774375 8.999597558329889 0 0 0
420 140 3 -0.398 5.723202579750941 19.78476936303993 0.4610630764755368 0 0 0
460 154 1 0.269 1.739130323770576 18.70657155447874 4.494758547087009 0 0 0
461 154 2 0.129 3.202316489918083 18.331567971639217 4.7948561246380255 0 0 0
73 25 1 0.269 11.433960805484666 17.522805347546925 10.802301379379402 0 0 0
75 25 3 -0.398 10.144988316812375 15.1691442951217 11.0718168218764 0 0 0
466 156 1 0.269 7.95454694495044 17.181496703408957 5.931961935082084 0 0 0
150 50 3 -0.398 4.3594471933751 24.42961184867097 8.428787898700946 0 0 0
467 156 2 0.129 7.449201566057101 18.510859526049273 6.522741533420341 0 0 0
149 50 2 0.129 3.846476949190476 24.52289710566608 7.3959237307639585 0 0 0
468 156 3 -0.398 7.069536239187239 19.50960808825372 6.96659347840564 0 0 0
284 95 2 0.129 4.136155349926993 21.114528073269163 9.035502372486945 0 0 0
285 95 3 -0.398 4.201683481364274 21.207387183815328 10.186906840768678 0 0 0
283 95 1 0.269 4.048935537988001 20.99092994860097 7.502950184799936 0 0 0
389 130 2 0.129 6.588539106328418 26.88343727620447 5.4172594229107585 0 0 0
64 22 1 0.269 10.386055301919049 16.974299796364267 2.2488975564644207 0 0 0
148 50 1 0.269 3.1636989232230346 24.64706244341238 6.021152063846966 0 0 0
243 81 3 -0.398 7.956193400304879 23.00623975394081 10.750744783115426 0 0 0
462 154 3 -0.398 4.301606356302932 18.04982826686952 5.02031904491499 0 0 0
490 164 1 0.269 5.695885716944828 25.1765609597642 2.1085608894772734 1 0 1
65 22 2 0.129 10.22876473080297 18.47806888513589 2.5413667067919348 0 0 0
66 22 3 -0.398 10.110592528996929 19.607848648583147 2.7610983996029255 0 0 0
260 87 2 0.129 7.663128026772682 27.155001471529143 9.692262646156697 0 0 0
672 224 3 -0.398 7.366480755542053 17.393090235483893 11.45909624629484 0 0 0
671 224 2 0.129 6.576214591372829 17.773310569914536 10.704403668449459 0 0 0
720 240 3 -0.398 1.0013183912262524 19.81031013353195 11.12076332686886 0 0 0
259 87 1 0.269 8.416302097601958 27.0583814615262 8.35248901128493 0 0 0
390 130 3 -0.398 6.812660312679176 25.769355067477825 5.19991288610318 0 0 0
670 224 1 0.269 5.524347786860638 18.279394679701223 9.699886321965547 0 0 0
481 161 1 0.269 11.578822430791831 21.852967333368607 11.878932662625173 0 -1 0
713 238 2 0.129 4.826728854309597 23.349869826761797 13.036777454662984 0 0 0
712 238 1 0.269 4.83612184268423 23.777277586860038 11.557306475435292 0 0 0
379 127 1 0.269 2.0633004345994004 25.579933775046367 14.334556030532667 0 -1 0
792 264 3 -0.398 10.538784373797284 25.031432848246528 12.788596859643711 0 0 0
791 264 2 0.129 9.416713230686158 25.243009946133093 12.975252910836698 0 0 0
348 116 3 -0.398 29.33420886252483 21.207822182118118 3.7071148365462085 -1 0 0
790 264 1 0.269 7.9232045354474945 25.52462509803051 13.223697438785877 0 0 0
719 240 2 0.129 0.8726050065291967 18.720844589531094 11.488386358022808 0 0 0
841 281 1 0.269 14.217998886842153 27.532020859088533 5.024289245763432 0 -1 1
714 238 3 -0.398 4.819671914342418 23.028758931675004 14.148302079965868 0 0 0
482 161 2 0.129 12.874445956443504 21.060526818069402 12.133879146206016 0 -1 0
403 135 1 0.269 12.840796249825235 21.241111414751717 2.941084650736564 0 -1 0
404 135 2 0.129 13.426173402590956 21.36219095925714 1.5218336747206052 0 -1 0
405 135 3 -0.398 13.865966497233774 21.45315786379791 0.45555225962290136 0 -1 0
388 130 1 0.269 6.290227388281599 28.366312471916686 5.706553862568208 0 0 0
78 26 3 -0.398 2.762160225302421 18.59640186966473 1.2830286298867035 0 0 0
842 281 2 0.129 13.169885438811692 28.205835762438127 4.119285557328259 0 -1 1
1012 338 4 0.7 5.027338353163988 17.26810092318336 13.511749654220575 0 0 0
1014 338 5 -0.35 4.318198575498436 16.910869307330422 12.666110045186505 0 0 0
325 109 1 0.269 12.548792547614191 25.248057250250906 0.9438318319235295 0 0 0
195 65 3 -0.398 14.138346854467295 16.651481579929516 9.639153860214565 0 0 0
355 119 1 0.269 11.353958017297678 25.178103785788714 9.968226231690533 0 -1 0
274 92 1 0.269 1.4748850970882619 22.932937565392677 10.17637005807751 1 0 0
718 240 1 0.269 0.7012838203291413 17.270734876686394 11.977703097847428 0 0 0
275 92 2 0.129 1.0064741447517898 22.62000039522096 8.743100541463235 1 0 0
276 92 3 -0.398 0.6545576045873149 22.384891105682854 7.666287015019917 1 0 0
114 38 3 -0.398 9.179184365898227 24.762063026822865 1.7377675524087728 0 0 0
392 131 2 0.129 2.2859594568841226 26.554039366516434 10.227573842728091 0 0 0
393 131 3 -0.398 1.5979713694150144 25.92284533085756 10.91088598285825 0 0 0
313 105 1 0.269 18.434483060020643 18.719958295841856 14.811389677782183 0 0 0
194 65 2 0.129 14.233261365865879 17.116184113427302 8.583837892891626 0 0 0
356 119 2 0.129 12.846273040132932 24.949438342040843 9.664403935839387 0 -1 0
112 38 1 0.269 9.075954646595452 27.38751391684104 2.346175515173947 0 0 0
435 145 3 -0.398 13.01760264745848 28.504665878442253 10.681963057252736 0 0 0
1013 338 5 -0.35 5.736478130829539 17.625332539036293 14.357389263254642 0 0 0
583 195 1 0.269 9.352539534216094 17.464116839231792 13.835824297327065 0 0 0
216 72 3 -0.398 13.379925011298077 14.43973538989361 12.691577194413522 0 0 0
662 221 2 0.129 7.251614124106245 21.438785621417246 14.717714373521353 0 0 0
542 181 2 0.129 3.2390009271338407 22.367292243087185 0.693986134053305 0 0 1
326 109 2 0.129 13.381099291685029 24.889480130664868 2.1889374230616436 0 0 0
357 119 3 -0.398 13.967447378717598 24.777642291121175 9.436142639540833 0 -1 0
639 213 3 -0.398 0.9561484953298018 17.030676409654934 7.4946895192173955 1 0 1
445 149 1 0.269 29.56133296455708 15.51488288525157 3.228616335932586 -1 0 0
154 52 1 0.269 0.04673359488963107 26.21842355112106 1.853894444466066 1 0 0
638 213 2 0.129 29.90770091157029 17.43670785889501 7.767719053034822 0 0 1
391 131 1 0.269 3.201691224129093 27.394176630919773 9.318065894758826 0 0 0
661 221 1 0.269 6.94554612687694 20.640803829116535 13.436641604226578 0 0 0
83 28 2 0.129 10.158293132893508 0.3472575908254778 13.795467056048176 0 1 0
246 82 3 -0.398 12.852597597321914 16.72376538137058 0.3937151890302521 0 0 0
915 305 3 -0.398 24.44812377249457 14.479664972854232 12.895854048671467 0 0 0
203 68 2 0.129 25.03812876118403 18.971006957810992 0.262945152727763 0 0 0
159 53 3 -0.398 16.731002990323788 14.212647126983356 2.1908453132826007 0 0 0
683 228 2 0.129 16.632701015013645 14.095340990441526 6.492806780406 0 0 1
483 161 3 -0.398 13.847846228637646 20.465167288068635 12.325420108220973 0 -1 0
51 17 3 -0.398 25.4418512338698 15.220278585083726 0.3296962014560647 -1 0 0
158 53 2 0.129 17.233144592575634 15.252756499934618 2.1224691216145595 0 0 0
373 125 1 0.269 15.787470269593829 17.098153102872416 12.465091234344264 0 0 0
237 79 3 -0.398 14.609445460105718 20.968899354402897 7.183055436716694 0 0 0
327 109 3 -0.398 14.006410267587597 24.62008160640445 3.1243836366634614 0 0 0
202 68 1 0.269 23.625225501228 18.35840010142905 0.2670945526364593 0 0 0
193 65 1 0.269 14.359595287692864 17.734716439776992 7.179182240620816 0 0 0
49 17 1 0.269 26.16352274841145 14.542927084222512 2.838519465334948 -1 0 0
991 331 4 0.7 20.79956497661387 24.610157263486887 0.8899137862418168 0 0 0
157 53 1 0.269 17.901509387275585 16.63717174137363 2.0314584602759425 0 0 0
209 70 2 0.129 22.29469615533991 14.675242036122436 8.708895696999434 0 0 0
232 78 1 0.269 25.977293120800898 22.740717492801394 1.7977311922295152 0 0 0
50 17 2 0.129 25.75144483502838 14.929698056164028 1.4059692887040713 -1 0 0
997 333 4 0.7 14.835001901576447 13.46928209646558 9.614988748839155 0 0 0
998 333 5 -0.35 15.558862029140467 13.826396582846016 10.448112844841724 0 0 0
210 70 3 -0.398 21.691282461233236 15.451596309364932 8.099129384235054 0 0 0
977 326 5 -0.35 26.64774395055192 26.12165886201472 2.425023993421944 0 0 0
374 125 2 0.129 16.76201767657218 17.560535866188726 11.365973619282164 0 0 0
4 2 1 0.269 16.188554853630272 22.81898818407734 13.259812563927213 0 0 0
684 228 3 -0.398 16.499025379114467 14.919713519043114 7.293550034173418 0 0 1
1044 348 5 -0.35 19.81676245041748 16.51240100711429 12.737883683887883 0 0 1
1042 348 4 0.7 20.694234423272885 16.84493287141229 12.055926576673908 0 0 1
1043 348 5 -0.35 21.57170639612829 17.177464735710295 11.373969469459935 0 0 1
891 297 3 -0.398 14.21520929430747 18.069829058198106 3.7959122329150317 0 0 1
173 58 2 0.129 19.296988142859156 20.950873103256953 9.70850956466761 0 0 0
269 90 2 0.129 21.731817634085317 14.89163861215111 0.5077109136128198 -1 0 0
236 79 2 0.129 14.905260668729234 21.301464093721354 8.251017541151617 0 0 0
235 79 1 0.269 15.298999148660283 21.744117247178934 9.672505562612095 0 0 0
424 142 1 0.269 18.965105158642316 17.883455887717357 7.516465769572045 0 0 0
425 142 2 0.129 19.77109407669691 18.797787686944 6.575201075187055 0 0 0
426 142 3 -0.398 20.376632504092477 19.484723980259083 5.868030132717292 0 0 0
328 110 1 0.269 18.94534412987081 13.995610757101351 10.1172018323939 0 0 0
890 297 2 0.129 15.098876587678669 18.80074817758604 3.642490084776897 0 0 1
564 188 3 -0.398 24.341036835037574 18.669013333069184 3.816935210539226 0 0 1
889 297 1 0.269 16.27506295914941 19.77362237279557 3.4382808296924328 0 0 1
975 325 5 -0.35 14.685839627740648 24.27650992425218 5.919779919981273 0 0 0
973 325 4 0.7 15.606772527654806 23.991392854605156 5.274651366550455 0 0 0
342 114 3 -0.398 18.17944469791923 25.148389120468796 6.7657006184185935 0 0 0
130 44 1 0.269 22.513593942935533 15.953951518684065 4.629848074308465 0 0 0
131 44 2 0.129 20.97412164392422 15.96911295964956 4.667200066015949 0 0 0
58 20 1 0.269 27.6027179007967 13.964424369229567 11.741888688796156 0 0 0
172 58 1 0.269 19.805586689383205 19.774603061986653 10.562509745278325 0 0 0
181 61 1 0.269 23.10066641890127 22.63781223712166 5.872484476804722 0 0 0
182 61 2 0.129 24.361813920329872 23.44872468607841 5.521019002302581 0 0 0
183 61 3 -0.398 25.309312400299284 24.057962155846564 5.2569634477577925 0 0 0
349 117 1 0.269 21.07962439567256 19.86693772938225 3.027075820174852 0 0 0
350 117 2 0.129 20.051911326812373 20.579194977579593 2.1281345203758 0 0 0
351 117 3 -0.398 19.27979183287001 21.114312923140844 1.4527610892930003 0 0 0
376 126 1 0.269 24.44081874502055 21.89080448166871 9.993133597933673 0 0 0
132 44 3 -0.398 19.817518104991695 15.980503730556757 4.695262568876699 0 0 0
974 325 5 -0.35 16.527705427568964 23.706275784958127 4.629522813119639 0 0 0
976 326 4 0.7 25.56330089583868 26.094560768422657 2.0141116494745965 0 0 0
978 326 5 -0.35 24.478857841125436 26.06746267483059 1.6031993055272475 0 0 0
278 93 2 0.129 25.28194907054892 14.65541361131532 6.389612040456342 0 0 0
1001 334 5 -0.35 19.865341761588137 22.52396244215623 6.168057797248884 0 0 0
277 93 1 0.269 25.98776528619163 15.587431146789632 7.391992598580101 0 0 0
1000 334 4 0.7 18.796928594786014 22.09727052220536 6.316473801954064 0 0 0
563 188 2 0.129 25.45729860358153 18.88764224254148 4.02861908812622 0 0 1
1002 334 5 -0.35 17.728515427983897 21.670578602254487 6.464889806659248 0 0 0
341 114 2 0.129 17.647774281248868 25.23571756080843 7.789589924713781 0 0 0
387 129 3 -0.398 25.642724526635565 19.956035862285336 7.145951168571555 0 0 0
386 129 2 0.129 24.709079779270976 19.309295931312707 7.366595559853803 0 0 0
385 129 1 0.269 23.4663719910761 18.448466636846113 7.660279537878576 0 0 0
340 114 1 0.269 16.94010579233586 25.35195420568573 9.152415794804178 0 0 0
233 78 2 0.129 24.626302546185055 22.147502742159503 2.238776231788149 0 0 0
292 98 1 0.269 21.11624848939014 24.482155413149343 9.861091236634794 0 0 0
174 58 3 -0.398 18.91487871537323 21.834603257639902 9.066900338065922 0 0 0
293 98 2 0.129 21.79942132821956 25.31173708633802 8.758063984117726 0 0 0
377 126 2 0.129 23.293115871345616 21.11910208867232 10.670520880367016 0 0 0
294 98 3 -0.398 22.312688194794646 25.935000720025883 7.929361041804571 0 0 0
17 6 2 0.129 27.478365923793532 23.993155444926764 8.715736479426102 0 0 0
16 6 1 0.269 27.564317756789336 22.536262088855604 8.22413294868046 0 0 0
437 146 2 0.129 25.590003090320053 17.018181619177874 10.899309134228096 0 0 0
438 146 3 -0.398 26.166454432727242 16.32178886507452 10.177235743311694 0 0 0
436 146 1 0.269 24.82272991200798 17.945100237431255 11.860409412543797 0 0 0
106 36 1 0.269 21.66894417610093 25.766867993298074 5.001923578755886 0 0 0
375 125 3 -0.398 17.494193877789034 17.907923435771174 10.540207982511484 0 0 0
280 94 1 0.269 25.99549111579581 26.88378577685006 6.41479080061932 0 0 0
18 6 3 -0.398 27.413790423289544 25.08771753127373 9.085077573629162 0 0 0
562 188 1 0.269 26.943074855576082 19.178643556791567 4.310376366850476 0 0 1
234 78 3 -0.398 23.611305082009387 21.701821270411013 2.570132797222782 0 0 0
1004 335 5 -0.35 15.331786295582319 27.151409341445884 13.697284873935047 0 -1 0
894 298 3 -0.398 24.102492338074043 25.033687373025604 12.091205264880541 0 0 0
893 298 2 0.129 23.45821211109783 25.87056667878595 12.563629879731867 0 0 0
447 149 3 -0.398 27.88979069931455 16.367187555182717 5.16596818965526 -1 0 0
265 89 1 0.269 17.869709646920036 27.231771273238706 3.189823773399204 0 -1 0
107 36 2 0.129 22.249824461564423 26.98160129282059 4.254527361886085 0 0 0
756 252 3 -0.398 19.225135863722105 26.471993537333415 11.291731770859732 0 0 0
266 89 2 0.129 17.486025753261128 27.991309355434353 4.47336908675637 0 -1 0
267 89 3 -0.398 17.19776454224596 28.561949330174848 5.437695013739644 0 -1 0
925 309 1 0.269 28.17226722612585 23.533104583025207 14.729217575394722 0 0 0
378 126 3 -0.398 22.43084819287685 20.539323083025035 11.17944106593545 0 0 0
992 331 5 -0.35 21.749667586714253 24.88334619154405 1.4967686617001763 0 0 0
40 14 1 0.269 27.97223237592861 20.67848032712127 12.675837140334716 0 0 0
41 14 2 0.129 27.29906967706825 20.451196020447412 11.309530503886368 0 0 0
270 90 3 -0.398 21.038551134017037 15.817037130226785 0.5485538154013877 -1 0 0
434 145 2 0.129 14.122340884095756 28.7538910777502 10.445131411264816 0 0 0
934 312 1 0.269 21.150565300531994 22.78189220365566 12.82626465843233 0 0 0
993 331 5 -0.35 19.84946236651349 24.33696833542972 0.28305891078346046 0 0 0
42 14 3 -0.398 26.793323415651734 20.280437616017768 10.283026102346927 0 0 0
834 278 3 -0.398 27.77649278917999 17.32263297177938 14.182322174839832 0 0 0
5 2 2 0.129 17.477597764691644 21.977902934267775 13.209374721043496 0 0 0
6 2 3 -0.398 18.44605402969035 21.345996678404347 13.171480835188653 0 0 0
755 252 2 0.129 18.824178344550987 26.38424822635999 12.373481662573205 0 0 0
245 82 2 0.129 13.74480888008705 17.397142083451925 0.09509863891865045 0 0 0
347 116 2 0.129 28.956830582060803 22.250989478148504 4.035804090898273 -1 0 0
156 52 3 -0.398 0.1894979542454564 24.154580931065308 0.12358205147514978 1 0 0
359 120 2 0.129 29.987658352347314 14.036097290978153 9.03213854292022 0 0 0
346 116 1 0.269 28.454529327164867 23.63947490242404 4.473298863328851 -1 0 0
598 200 1 0.269 29.22435065624451 20.52390439615997 0.5295944496240239 0 0 1
464 155 2 0.129 0.10671804204165211 27.506525539998975 5.750640999052654 1 0 0
465 155 3 -0.398 29.683849421779616 26.477699769542 5.432287949685477 0 0 0
358 120 1 0.269 29.103161167444313 13.898995048613486 7.7789555135756725 0 0 0
637 213 1 0.269 28.51218727372271 17.977147298678684 8.131129149905036 0 0 1
599 200 2 0.129 29.079348630424498 19.190750517131782 1.286743805655656 0 0 1
600 200 3 -0.398 28.970408796740248 18.18915373918658 1.8555891335313706 0 0 1
446 149 2 0.129 28.60687427398478 16.001552960036133 4.3348535827746 -1 0 0
155 52 2 0.129 0.12825273223037117 25.03995946699579 0.8658777276673939 1 0 0
91 31 1 0.269 28.7653705667297 28.085540293304888 9.802947531881548 -1 0 0
189 63 3 -0.398 6.342816253835861 29.28712000447063 1.7708279131756188 0 0 0
843 281 3 -0.398 12.382439166492702 28.71207202424039 3.4393574615363782 0 -1 1
788 263 2 0.129 7.212653008411005 29.478192299555044 12.394476379639148 0 -1 0
463 155 1 0.269 0.6695682366860138 28.875921984686745 6.174377987838698 1 0 0
962 321 5 -0.35 10.091442685629039 27.861971693083273 5.235616590773357 0 0 0
961 321 4 0.7 10.77133811177009 28.3898532540907 6.013230419779159 0 0 0
164 55 2 0.129 3.6526763549088086 28.498687032197154 13.350359168939825 0 0 0
459 153 3 -0.398 3.056578237515388 29.78458182473367 4.5464556982569615 0 0 0
963 321 5 -0.35 11.45123353791114 28.917734815098118 6.790844248784964 0 0 0
789 263 3 -0.398 7.194199607935726 28.77384026223857 13.312189123115473 0 -1 0
165 55 3 -0.398 3.1072204346153205 28.01669300589785 12.451021302713462 0 0 0
108 36 3 -0.398 22.686239065643164 27.89422884317613 3.693009554796246 0 0 0
433 145 1 0.269 15.592778986447875 29.08561692644013 10.129901735533268 0 0 0
281 94 2 0.129 26.513950387587098 27.98329851006443 5.469342899890556 0 0 0
969 323 5 -0.35 20.650607202230546 28.306986771958922 1.3233490379828092 0 -1 0
1003 335 4 0.7 14.495995917393147 27.912053357820657 13.958962393182064 0 -1 0
229 77 1 0.269 14.234129233476864 29.59128131007667 0.9256906483021405 0 0 0
967 323 4 0.7 20.820320820016892 29.385079917313202 1.7164297649054252 0 -1 0
282 94 3 -0.398 26.90346816516017 28.80936099858977 4.7590291199274555 0 0 0
367 123 1 0.269 23.182141269581727 29.148051983171257 9.378635197513148 0 0 0
996 332 5 -0.35 21.78392435570695 0.16476739494030912 6.039231484086778 0 1 0
369 123 3 -0.398 25.41215424644701 28.826893377464675 10.86110215262329 0 0 0
230 77 2 0.129 14.650604027938263 28.218681292285453 0.3652283955700234 0 0 0
217 73 1 0.269 18.791843213500897 0.00715445708661934 12.892163839665203 0 1 0
352 118 1 0.269 18.947303003062753 29.51262732645619 7.7691237420403745 0 0 0
368 123 2 0.129 24.4554894284147 28.964668871273545 10.22513097462461 0 0 0
353 118 2 0.129 19.698337007896203 29.862913382922304 9.06714053785973 0 0 0
764 255 2 0.129 25.203485027950844 28.831876254996125 0.48484991073922323 0 -1 1
92 31 2 0.129 28.45040416711991 29.514073696128385 9.321607232161728 -1 0 0
84 28 3 -0.398 9.822392151071236 1.440828065308164 13.968450141205144 0 1 0
892 298 1 0.269 22.60065675280624 26.984476904257807 13.192440516612628 0 0 0
844 282 1 0.269 2.7075917899559254 9.157990044322133 14.29386944304324 1 0 0
215 72 2 0.129 13.206406063981895 15.159910227400037 13.580333841840197 0 0 0
781 261 1 0.269 4.124170566218554 3.4552929559463825 14.825511610374654 0 0 0
27 9 3 -0.398 7.631884044579914 9.615482531154303 14.937567365268617 0 0 0
675 225 3 -0.398 24.482939300074655 21.31004058825268 14.152729757051302 0 0 0
133 45 1 0.269 20.341908281285658 10.036473768332465 14.599612769667507 0 0 0
167 56 2 0.129 15.855941685017724 3.739517721297478 14.3326223542347 0 0 0
835 279 1 0.269 16.25903627187494 13.127737428739362 13.447282377742603 0 0 0
985 329 4 0.7 25.976456600166685 3.5706432529979573 14.372827320383042 0 0 0
876 292 3 -0.398 17.212164429626622 7.626522622633634 14.368366089036702 0 0 0
177 59 3 -0.398 24.010248466346223 1.357385663663807 14.075014117215781 0 0 0
553 185 1 0.269 28.40534317825106 11.228008205640018 14.415567427037317 0 0 0
954 318 3 -0.398 29.815450303117096 8.101844693198093 13.712435441855575 -1 0 0
162 54 3 -0.398 1.4705106898988727 14.289870165364343 1.2492952888135602 0 0 0
935 312 2 0.129 21.262037431706343 23.81196455004754 13.965617512104213 0 0 0
754 252 1 0.269 18.290492450407914 26.267456714779108 13.813321622157254 0 0 0
585 195 3 -0.398 11.137100512618355 19.309194364807038 14.663374923561976 0 0 0
584 195 2 0.129 10.37153245477207 18.51766499992363 14.308359693842366 0 0 0
987 329 5 -0.35 26.262240562139098 2.570147270203064 14.885599507119837 0 0 0
214 72 1 0.269 12.975447395989741 16.118483476976444 14.763294288717537 0 0 0
936 312 3 -0.398 21.34578629908863 24.58585656613546 14.821611831388871 0 0 0
590 197 2 0.129 11.433884892072584 5.983268618009482 0.07589262840610676 0 0 1
1008 336 5 -0.35 7.931827848761249 17.56752521334132 0.08152372204340352 0 0 0
171 57 3 -0.398 27.022079877285638 2.6200823466089256 0.0013065671998013784 0 0 0
508 170 1 0.269 9.463854366478579 8.359120853863828 22.012052806735227 0 0 0
509 170 2 0.129 9.075723721472432 6.890865864948585 21.756745364751062 0 0 0
510 170 3 -0.398 8.784121671945089 5.787767798601224 21.564933215156465 0 0 0
604 202 1 0.269 3.529014208987144 3.66656926213298 25.49983535558149 0 0 0
605 202 2 0.129 5.016370985911376 3.368841041679824 25.7657822015557 0 0 0
606 202 3 -0.398 6.133820200782376 3.145158216313397 25.965587721550612 0 0 0
745 249 1 0.269 10.237519302796713 4.188998528956371 24.953695663198534 0 0 0
746 249 2 0.129 9.233674436514596 5.185189535181734 25.5632028112737 0 0 0
747 249 3 -0.398 8.479487092171473 5.933626544404295 26.02112474005485 0 0 0
868 290 1 0.269 10.277796340138023 9.908924825054577 27.41112586026263 0 0 0
869 290 2 0.129 9.802039638299746 11.281567248644699 27.92211347030562 0 0 0
870 290 3 -0.398 9.444604246074496 12.312831718835458 28.306017798110652 0 0 0
68 23 2 0.129 9.956808887108876 10.221157231733676 18.778087128991316 0 0 0
846 282 3 -0.398 1.6278133200353069 10.492528220925992 16.373988504799637 1 0 0
505 169 1 0.269 3.6024943917661965 9.56205360059726 18.83810699457626 0 0 0
506 169 2 0.129 5.031596717450415 9.01080407737637 18.99745098057129 0 0 0
507 169 3 -0.398 6.105279438759922 8.596651026488994 19.11716591030911 0 0 0
641 214 2 0.129 2.9742210101450586 7.547602818766776 26.79593794158425 0 0 0
444 148 3 -0.398 5.233512827072667 3.753731712351424 20.54117195404499 0 0 0
443 148 2 0.129 5.916181390075693 4.530006655998017 20.021547238549477 0 0 0
640 214 1 0.269 2.2984116942435193 8.916215112244894 26.591531095609348 0 0 0
442 148 1 0.269 6.824832718532621 5.563250746936442 19.329911921468156 0 0 0
715 239 1 0.269 5.184336022577334 7.1182863339420095 22.54356736730656 0 0 0
885 295 3 -0.398 8.282325278180979 11.269645081935588 24.073295424561245 0 0 0
905 302 2 0.129 5.72913636109159 12.023579094059004 21.39386237116652 0 0 0
904 302 1 0.269 7.103871607747132 12.510438879546214 20.899220530155976 0 0 0
884 295 2 0.129 7.221644146241121 11.056973237056683 24.48363092478372 0 0 0
146 49 2 0.129 0.6824926131713334 7.304832735076193 21.44017505794441 1 0 0
716 239 2 0.129 3.8389828494364786 7.406507707076081 23.23534282190769 0 0 0
717 239 3 -0.398 2.828220757667666 7.623048050398237 23.755072822539837 0 0 0
883 295 1 0.269 5.809847306839755 10.773900945688048 25.029799179185286 0 0 0
906 302 3 -0.398 4.696299555649726 11.657801969507895 21.76548614392574 0 0 0
531 177 3 -0.398 13.183567636890869 10.863221764860482 22.18258861510721 0 0 0
530 177 2 0.129 12.18528635855483 11.44810029279259 22.181816030052122 0 0 0
580 194 1 0.269 11.783864505948912 3.7434185062981107 21.35907508602729 0 1 0
529 177 1 0.269 10.85654550407125 12.226590295398859 22.180787697308105 0 0 0
523 175 1 0.269 11.569369899983592 0.017929853359704095 27.50870145769731 0 0 0
502 168 1 0.269 29.600093682860063 10.4260304170401 19.295945345381323 -1 0 0
774 258 3 -0.398 13.134229423386325 10.680953899590829 27.645916277054273 0 0 0
19 7 1 0.269 5.422878002131491 1.3174838838977567 18.263268165671096 0 0 0
289 97 1 0.269 1.4416173967054693 13.47246935448974 27.84619215215023 1 0 -1
69 23 3 -0.398 10.831185857996461 10.141416612948296 19.531582548020126 0 0 0
945 315 3 -0.398 11.501911109470841 6.325235712801814 19.356460926903598 0 0 0
944 315 2 0.129 11.061457548228645 6.533173900573917 18.30697944995657 0 0 0
943 315 1 0.269 10.4752012955813 6.809945559319845 16.910089670787666 0 0 0
67 23 1 0.269 8.792988199842776 10.327294269702112 17.775163235037674 0 0 0
642 214 3 -0.398 3.4819556715074493 6.519366180095233 26.949508539501753 0 0 0
201 67 3 -0.398 7.35274144455898 4.055316784672805 16.4839574172365 0 1 0
825 275 3 -0.398 9.39240701706917 1.9544379153038332 23.060118108637468 0 0 0
271 91 1 0.269 6.329733014162659 7.414692495625559 27.981380011884646 0 0 -1
450 150 3 -0.398 4.0335907470381684 5.307626600245601 17.88178304638609 0 0 0
449 150 2 0.129 3.0148276835074563 5.836569106711369 17.736901559510457 0 0 0
200 67 2 0.129 8.125935681506139 3.2380511067688498 16.75395090543872 0 1 0
824 275 2 0.129 8.263026379532015 1.9178877515364359 22.811496989090806 0 0 0
20 7 2 0.129 3.9935759090649983 0.7906502253718657 18.489413744889475 0 0 0
223 75 1 0.269 2.0518790918823746 3.2858873972372553 20.65375121059243 0 0 -1
830 277 2 0.129 10.122027758687334 12.951379812277649 15.119942927744496 0 0 0
895 299 1 0.269 0.8622260395190686 11.15537398106543 23.8088590576492 0 0 0
1046 349 5 -0.35 11.687631714915229 7.258939502172816 24.198061478863178 0 0 0
448 150 1 0.269 1.6588249887474762 6.5406066693365075 17.54406016816346 0 0 0
581 194 2 0.129 12.784265202697249 4.742457355923266 21.969582926177676 0 1 0
1045 349 4 0.7 12.733403263456482 7.725864597291284 24.013825695666522 0 0 0
224 75 2 0.129 2.0602790536568647 2.703292317772844 22.079273014713994 0 0 -1
871 291 1 0.269 5.751772883036016 12.623391480609389 28.054116821220926 0 0 0
521 174 2 0.129 0.48733059322739103 5.300467645417353 27.682166635721305 0 0 0
773 258 2 0.129 13.771983232963123 11.03944363852985 26.749588108666195 0 0 0
888 296 3 -0.398 12.627009328505597 6.795399953358841 26.680520709232905 0 0 0
887 296 2 0.129 13.532291645559294 7.03309935348619 27.360676516095765 0 0 0
823 275 1 0.269 6.7597885387306125 1.8692384410768068 22.480575187792745 0 0 0
290 97 2 0.129 2.383198418258929 12.82397072824141 26.81445831457161 1 0 -1
520 174 1 0.269 29.938049745166328 4.20484668461554 26.749693976494875 -1 0 0
588 196 3 -0.398 1.1211508489680484 3.575240005923566 15.627580391002098 0 0 0
291 97 3 -0.398 3.0906070169195505 12.336754552547042 26.03931802231287 1 0 -1
199 67 1 0.269 9.155079263959573 2.1502471793945235 17.113319939000885 0 1 0
1035 345 5 -0.35 9.910978152215696 13.525212644775408 18.776146322062647 0 0 0
587 196 2 0.129 0.29186225529019433 2.8762864639578285 16.030561004145515 0 0 0
845 282 2 0.129 2.0910330789148603 9.920017775864569 15.481627453834808 1 0 0
1033 345 4 0.7 10.998125634779617 13.610871089248413 18.380706083789114 0 0 0
264 88 3 -0.398 9.745184029721353 2.199265996160838 28.588273590098506 0 0 -1
225 75 3 -0.398 2.066589934028998 2.2655893911882172 23.150265694823506 0 0 -1
147 49 3 -0.398 1.1148581000425075 7.869128179883426 20.527333485308628 1 0 0
1034 345 5 -0.35 12.085273117343542 13.69652953372142 17.98526584551559 0 0 0
522 174 3 -0.398 0.9000045810239209 6.123606250383394 28.382732133594676 0 0 0
263 88 2 0.129 8.64025935056873 2.462355726503846 28.808669250644773 0 0 -1
345 115 3 -0.398 12.899287389370137 5.156845139385668 15.166432705063594 0 1 0
1020 340 5 -0.35 13.575714979000445 3.229796130046581 25.4599612159705 0 1 0
21 7 3 -0.398 2.91974310278063 0.39484078192091976 18.659316624860686 0 0 0
240 80 3 -0.398 5.643372575185756 13.330946069891738 17.98845523332851 0 0 0
344 115 2 0.129 12.697140227214406 4.029663895346452 15.331502290143927 0 1 0
879 293 3 -0.398 13.296321699120915 3.0147449786632334 18.52753710510168 0 0 0
361 121 1 0.269 9.01495516799559 13.977796469469519 25.6906481982134 0 0 -1
239 80 2 0.129 5.456992185678143 12.756800088919858 17.00140521284267 0 0 0
589 197 1 0.269 10.246564169319397 6.307694179717393 29.150356267028677 0 0 0
343 115 1 0.269 12.428076588735737 2.5293535100220006 15.55121461600712 0 1 0
708 236 3 -0.398 12.571650271793935 0.556148821519616 23.64272798028414 0 1 0
649 217 1 0.269 13.732082560269134 8.571238332472142 20.21739858799647 0 0 0
795 265 3 -0.398 28.758218792405167 29.28289906034358 29.846647774339576 -1 0 0
872 291 2 0.129 5.24680990950521 13.72942111632917 28.999268047359948 0 0 0
430 144 1 0.269 6.399778098244311 7.039588053122838 16.171130573911523 0 0 0
8 3 2 0.129 12.579361800443074 9.17325372690899 15.58772310242162 0 0 0
771 257 3 -0.398 5.111615101352857 28.813058537739423 21.71603075946974 1 -1 0
238 80 1 0.269 5.208914571294623 11.992595412431792 15.687613482896095 0 0 0
582 194 3 -0.398 13.53586494694259 5.493033946193595 22.428256673615337 0 1 0
7 3 1 0.269 13.993721520260578 8.60640020713125 15.811024849109637 0 0 0
772 258 1 0.269 14.620851743549359 11.516603705916271 25.556549751434012 0 0 0
874 292 1 0.269 18.386931824818596 6.457302676172046 16.495959866990795 0 0 0
1047 349 5 -0.35 13.779174811997738 8.19278969240975 23.82958991246987 0 0 0
886 296 1 0.269 14.737248230055997 7.349484034727425 28.265983294461186 0 0 0
1018 340 4 0.7 14.36746187584917 3.0060374394626383 24.642239441943392 0 1 0
878 293 2 0.129 14.128996904398937 3.814304360362427 18.45004002353278 0 0 0
877 293 1 0.269 15.237311352219299 4.87854070246853 18.346889197589736 0 0 0
1019 340 5 -0.35 15.159208772697895 2.7822787488786975 23.824517667916282 0 1 0
926 309 2 0.129 28.473875118255286 25.00733644950214 15.056743274033957 0 0 0
299 100 2 0.129 21.93923412344044 7.483191632140218 16.73929381648728 0 0 0
650 217 2 0.129 14.978240961637942 8.102080777615742 19.443718791556666 0 0 0
651 217 3 -0.398 15.914478150198793 7.749603315947653 18.8624541652704 0 0 0
128 43 2 0.129 23.056830679563678 11.3814184449462 16.506804675664455 0 0 0
568 190 1 0.269 24.495168574040825 2.1438937531731623 17.700435323765493 -1 1 0
758 253 2 0.129 17.114372073265205 6.543693770905847 21.704756713943784 0 0 0
757 253 1 0.269 16.769486277193398 5.04585607111194 21.609174222119268 0 0 0
453 151 3 -0.398 22.116586144867732 11.702331803378382 22.902308496604174 0 1 0
603 201 3 -0.398 17.10706853497584 12.159179420585575 23.746129921356975 0 0 0
602 201 2 0.129 16.844397493481157 11.912870022244705 22.646591561749123 0 0 0
539 180 2 0.129 16.283140888680602 11.085624633780451 17.337373712926546 0 0 0
540 180 3 -0.398 15.3663224295199 11.790380981426418 17.374942362022935 0 0 0
709 237 1 0.269 20.080764944373694 7.114286901267682 19.854913854025725 0 0 0
710 237 2 0.129 19.862503130309303 8.638276220902082 19.817253076531745 0 0 0
527 176 2 0.129 23.268092707660504 9.771290244471405 26.31390985955528 0 0 0
547 183 1 0.269 24.150577447971777 4.855978484063599 20.353544091087688 0 0 0
548 183 2 0.129 22.74150225299748 4.456581627748851 19.877530177347552 0 0 0
549 183 3 -0.398 21.682865888981087 4.1565152882967995 19.51990154215447 0 0 0
574 192 1 0.269 21.2156972120349 12.539611822952022 19.86714890485685 0 0 0
575 192 2 0.129 19.93024646026741 13.361882873696842 20.07472222657052 0 0 0
607 203 1 0.269 18.587793441377777 3.952775292207184 25.696017506035307 0 0 0
608 203 2 0.129 17.630792780880366 4.967659255796419 26.348520591282902 0 0 0
655 219 1 0.269 26.134189362306195 8.48415343754283 24.39821497925429 0 0 0
656 219 2 0.129 25.413097206387057 7.365767874976682 23.623076387700642 0 0 0
657 219 3 -0.398 24.87134160612833 6.5255262542695185 23.040715770539883 0 0 0
689 230 2 0.129 18.200924867935676 9.28153370086662 25.714958475730864 0 0 0
690 230 3 -0.398 19.073162546013574 9.799580909108546 26.271265515929084 0 0 0
711 237 3 -0.398 19.69852331285963 9.783247417536494 19.78895858331062 0 0 0
848 283 2 0.129 24.81204586674189 8.800580376824325 20.015701926476474 0 0 0
849 283 3 -0.398 24.67145080512164 7.807620151192372 19.43871664160241 0 0 0
688 230 1 0.269 17.03995164041626 8.591998090933545 24.97449793821552 0 0 0
528 176 3 -0.398 23.777339294976112 8.756982684980033 26.089194288074896 0 0 0
840 280 3 -0.398 20.429814541124642 6.171177130092921 23.002180344974686 0 0 0
839 280 2 0.129 21.255395122968164 5.839496707565786 23.741811198978905 0 0 0
452 151 2 0.129 21.510728899383082 10.772737979341825 23.230090925063795 0 1 0
838 280 1 0.269 22.354266424644067 5.398020604979966 24.72628096143915 0 0 0
759 253 3 -0.398 17.373484323950322 7.669017289517245 21.77656771591844 0 0 0
451 151 1 0.269 20.704315625358564 9.53542208563716 23.66637868636701 0 1 0
601 201 1 0.269 16.494774845337847 11.585025187806549 21.18307464403427 0 0 0
609 203 3 -0.398 16.91179942750666 5.730140259609888 26.838745311822823 0 0 0
696 232 3 -0.398 17.30349115508085 2.065208657068027 19.48263833855742 0 0 0
569 190 2 0.129 25.761827100449132 1.338208381085377 18.04401538529544 -1 1 0
695 232 2 0.129 18.358659638082656 2.040482564553836 19.956618393864282 0 0 0
694 232 1 0.269 19.76311898451548 2.007571430178858 20.58749936635569 0 0 0
815 272 2 0.129 26.169270846098186 6.288527609928668 27.11113959920027 0 0 0
847 283 1 0.269 24.999181903816375 10.122238758391495 20.783685797441084 0 0 0
538 180 1 0.269 17.503452407356036 10.147573833975104 17.287368769444747 0 0 0
300 100 3 -0.398 21.199511275454338 8.36266290768235 16.873418324553697 0 0 0
557 186 2 0.129 24.296729364632352 2.103018075472491 26.61796384260205 -1 0 0
127 43 1 0.269 24.281338783077448 10.532681177758926 16.89645189523205 0 0 0
556 186 1 0.269 24.66239050929179 0.8440413616335511 27.425967283991763 -1 0 0
630 210 3 -0.398 26.029830536469436 4.772518126112937 17.42411782994862 0 0 0
129 43 3 -0.398 22.13685933166405 12.01907365152781 16.214063225638668 0 0 0
741 247 3 -0.398 25.132538120809297 2.0835195510747604 21.554781945537936 0 1 0
629 210 2 0.129 26.753046807266752 5.643039963033551 17.183703693304626 0 0 0
739 247 1 0.269 22.98722442882104 1.5154159153982967 23.08732767800337 0 1 0
740 247 2 0.129 24.212208887724238 1.839805829725973 22.212236677633786 0 1 0
477 159 3 -0.398 21.805928673913304 2.9450392668272687 16.214719970952707 0 0 0
922 308 1 0.269 15.923731994246205 29.65867475867797 25.138970956032185 0 -1 0
526 176 1 0.269 22.590270975192023 11.12136253627496 26.613012694542135 0 0 0
476 159 2 0.129 20.660281963910066 2.9153256446534606 16.055786914239675 0 0 0
570 190 3 -0.398 26.713466006328616 0.7328980073804696 18.302146639315012 -1 1 0
475 159 1 0.269 19.135393516714746 2.8757759660470077 15.844242482659668 0 0 0
211 71 1 0.269 26.803919531777733 11.581128318174141 28.078548315182424 0 0 -1
802 268 1 0.269 15.265406544681916 0.937076749278388 16.73645234120228 0 1 0
212 71 2 0.129 25.950970655146506 12.50376497145126 27.188144013821397 0 0 -1
928 310 1 0.269 14.89371608964057 0.8627504707979148 21.14508193599124 0 0 0
499 167 1 0.269 19.212541574444344 13.190614118004106 27.8632589848076 0 0 0
213 71 3 -0.398 25.31015127185928 13.196940690828937 26.51918441857808 0 0 -1
558 186 3 -0.398 24.02200862153432 3.0488856455449906 26.010911906441084 -1 0 0
45 15 3 -0.398 16.64264156036446 10.865349089474286 28.5899739532017 0 0 -1
334 112 1 0.269 27.843173826373388 3.3935687484271377 20.116497253826292 -1 1 0
735 245 3 -0.398 18.776386934552452 12.691355267172302 15.05787342088085 0 0 0
554 185 2 0.129 27.816958329865543 10.643040669379866 15.7129556695122 0 0 0
784 262 1 0.269 20.938216649880918 1.566387210382536 26.933499870019432 0 0 0
669 223 3 -0.398 21.38586098964805 5.531368198760264 27.583196843610516 0 0 0
785 262 2 0.129 21.532407008200575 0.8473900662470628 28.15888998129237 0 0 0
298 100 1 0.269 22.92382633251442 6.312590280078952 16.56077027074633 0 0 0
383 128 2 0.129 14.451196785189957 14.547270156116937 21.82001120816566 0 0 -1
384 128 3 -0.398 14.178697940556605 14.387503569841813 20.70696672676172 0 0 -1
205 69 1 0.269 27.160908990673654 13.846515133952687 23.77654237417954 0 0 0
929 310 2 0.129 15.472149751716383 29.50981786892154 21.599601323209694 0 -1 0
814 272 1 0.269 24.858965832188264 6.332445177256484 27.91908267751879 0 0 0
668 223 2 0.129 21.12752086707084 4.89138328533948 28.511813390771216 0 0 0
628 210 1 0.269 27.715668291301206 6.801729357033328 16.863705620329895 0 0 0
816 272 3 -0.398 27.153701301353887 6.255532398631082 26.50413301373629 0 0 0
916 306 1 0.269 26.463396874986632 3.957680515477606 24.10632390897352 0 0 0
63 21 3 -0.398 27.259945690124567 14.208309333375944 15.042364904227 0 0 0
206 69 2 0.129 28.170039824950706 14.001580266346526 24.929455971994937 0 0 0
500 167 2 0.129 19.86280631541078 12.078246885520992 28.706701280850474 0 0 0
875 292 2 0.129 17.716133979584765 7.124932901441175 15.281093564414116 0 0 0
555 185 3 -0.398 27.374905557409672 10.20355531908572 16.687681771163785 0 0 0
576 192 3 -0.398 18.96448897988105 13.979654046236947 20.230671793598255 0 0 0
534 178 3 -0.398 25.76649271065662 13.115965318275174 20.315233463498803 0 0 0
949 317 1 0.269 19.278334066075743 14.23496463234391 23.883431102563133 0 0 0
726 242 3 -0.398 19.739440365266745 0.6776231765007914 23.907681734110692 0 1 0
803 268 2 0.129 16.648074057115448 0.2610127205122681 16.78906392804272 0 1 0
498 166 3 -0.398 26.155932125762668 0.027655959111599876 24.12134163476363 0 1 0
497 166 2 0.129 26.988328305618538 29.853266681806787 23.33689662093378 0 0 0
168 56 3 -0.398 16.43145994879455 4.0384728373296666 15.290773473138922 0 0 0
808 270 1 0.269 18.683267000416922 8.087807607788168 29.175376884803324 0 0 0
501 167 3 -0.398 20.35134937079919 11.242526828389199 29.340378382487877 0 0 0
145 49 1 0.269 0.1070018182001885 6.553739403180651 22.655193227226267 1 0 0
896 299 2 0.129 29.86056531836062 10.71878545832887 24.894062384912456 -1 0 0
503 168 2 0.129 28.879161953746596 10.644242835707175 20.639165648346367 -1 0 0
918 306 3 -0.398 28.940228225935716 3.931775187960181 23.039344821565773 0 0 0
504 168 3 -0.398 28.33752688193863 10.808185542458993 21.648325317522062 -1 0 0
336 112 3 -0.398 29.654476540725817 5.294946319938962 19.501879643005818 -1 1 0
917 306 2 0.129 27.877679515128122 3.9428884485970572 23.497073707042514 0 0 0
335 112 2 0.129 28.877436407056646 4.4792645067245775 19.76554763548609 -1 1 0
586 196 1 0.269 29.188055484102723 1.9459593640207178 16.566939694068466 -1 0 0
897 299 3 -0.398 29.108018919412356 10.390777068194975 25.709374235330365 -1 0 0
793 265 1 0.269 28.80057107317952 29.944725278159044 27.232455481924188 -1 0 0
898 300 1 0.269 3.6587508108582707 16.592471465781824 17.575342172183504 1 0 0
471 157 3 -0.398 1.3761248297884152 17.388227259865968 15.394181006965129 1 0 0
402 134 3 -0.398 9.417769840310607 24.34921094148647 17.194446404257857 0 -1 0
565 189 1 0.269 7.857047297162486 15.94426754557379 17.26526797232896 1 0 0
865 289 1 0.269 2.135706296638943 15.114118278592816 24.14429338286242 0 0 0
552 184 3 -0.398 5.915932841508926 14.041735667428068 25.056464411620066 0 0 0
646 216 1 0.269 7.162567612718789 17.004737077639117 22.943974275236933 0 0 0
647 216 2 0.129 6.556830944517774 17.334670163344917 21.567083848313523 0 0 0
648 216 3 -0.398 6.1017417723693494 17.582548462151163 20.532627858735353 0 0 0
400 134 1 0.269 11.070995468390343 26.45793490308616 16.887954517846687 0 -1 0
362 121 2 0.129 10.408565497552384 14.215727924111668 25.080042865576484 0 0 -1
550 184 1 0.269 5.012450223408464 16.281869821258795 26.256184017040855 0 0 0
363 121 3 -0.398 11.455583128264859 14.394485516982428 24.621295872160307 0 0 -1
899 300 2 0.129 2.6592826024271803 16.045308124361277 18.611332316026786 1 0 0
900 300 3 -0.398 1.9083834354435645 15.634225016553765 19.3896703656545 1 0 0
567 189 3 -0.398 10.434518191091314 16.584024326124123 16.79498714910854 1 0 0
866 289 2 0.129 2.1633737906705552 16.629926169015956 24.414776190273344 0 0 0
597 199 3 -0.398 8.830774509597385 19.86754060078905 21.62673820876054 0 0 0
595 199 1 0.269 9.33475839700782 18.922528207358283 19.151508761316588 0 0 0
596 199 2 0.129 9.046981168008164 19.46213483912817 20.564876706835197 0 0 0
622 208 1 0.269 5.2205574915984245 20.943262478956598 17.95291483731628 0 0 0
623 208 2 0.129 6.125848174163618 19.787623837774635 17.48756753575679 0 0 0
634 212 1 0.269 6.795742020822341 22.531430130772264 21.346678424356014 0 0 0
635 212 2 0.129 6.230270466707067 23.757541257282103 20.606075003532343 0 0 0
765 255 3 -0.398 25.570451446758543 28.402803839979523 29.474958079829058 0 -1 0
663 221 3 -0.398 7.4815626129337165 22.03830830563278 15.680182681361647 0 0 0
697 233 1 0.269 2.4041912855400063 24.295980211879375 19.38888374276779 0 0 0
698 233 2 0.129 2.452692891140478 23.823677333687325 20.853867560257147 0 0 0
699 233 3 -0.398 2.4891320844390132 23.46883679468199 21.95450799976052 0 0 0
742 248 1 0.269 8.411097377312867 20.880216849615586 24.652639366681896 0 0 0
743 248 2 0.129 7.51291696609392 22.131026229498737 24.67128994574271 0 0 0
744 248 3 -0.398 6.838115189613188 23.070757692177175 24.685302101569565 0 0 0
1027 343 4 0.7 3.1376453323454494 23.360160674778168 24.860036556593506 0 0 0
1028 343 5 -0.35 3.0094663510619832 24.49738394850585 24.67058108834485 0 0 0
1029 343 5 -0.35 3.2658243136289222 22.22293740105048 25.049492024842166 0 0 0
396 132 3 -0.398 5.4503714516393025 19.67539922494574 24.397445022826208 0 0 -1
395 132 2 0.129 4.567292950871078 19.79975450142243 23.66031740382596 0 0 -1
394 132 1 0.269 3.391890279148458 19.965274921279043 22.679179518553372 0 0 -1
551 184 2 0.129 5.528343153284148 15.002742421592751 25.57113833949246 0 0 0
680 227 2 0.129 9.796580675209007 18.376776914458564 26.789170443754454 0 0 0
679 227 1 0.269 11.32994447113102 18.26206896034544 26.704096625108065 0 0 0
97 33 1 0.269 6.25689775998023 24.823220068137182 16.732654718172707 0 0 0
867 289 3 -0.398 2.1841603430046934 17.76875066850918 24.6179895722048 0 0 0
1024 342 4 0.7 12.35486171497986 22.345143489222117 27.860293480138054 0 0 0
566 189 2 0.129 9.32879560144517 16.30957175100483 16.996735355436318 1 0 0
122 41 2 0.129 12.580958931611013 22.769484423707855 15.74494495971993 0 0 0
937 313 1 0.269 10.16220376666954 24.734758125928423 24.795157702239173 0 0 0
938 313 2 0.129 11.217385206374217 23.64377520527277 24.534488570694084 0 0 0
636 212 3 -0.398 5.8054324224789005 24.67871695427683 20.049660615290144 0 0 0
931 311 1 0.269 5.866439384728201 25.934813781123367 23.315982761803138 0 0 0
850 284 1 0.269 12.431148996561639 20.06873326779366 22.27998427883711 0 0 0
851 284 2 0.129 12.531647020868217 20.431299369604194 20.786650435073923 0 0 0
852 284 3 -0.398 12.607151056012828 20.70369481102938 19.664710657649245 0 0 0
139 47 1 0.269 1.7829243671664874 20.037657693939256 26.55249747678329 0 0 -1
140 47 2 0.129 0.7174802377884479 19.323019831962934 27.404390388717662 0 0 -1
681 227 3 -0.398 8.64456644671435 18.462956851412383 26.853086293218013 0 0 0
559 187 1 0.269 5.87087027303148 24.196905425992234 27.643642738316125 0 0 0
560 187 2 0.129 5.514478264042397 25.614480108990996 27.158805905918104 0 0 0
902 301 2 0.129 1.6116019339485257 27.40792164076034 27.877446628180927 0 -1 0
561 187 3 -0.398 5.246721410535667 26.679502127321886 26.79454862339569 0 0 0
939 313 3 -0.398 12.010141651658842 22.824121153845113 24.338648190695594 0 0 0
901 301 1 0.269 1.9291136139212224 25.90121545605596 27.85249054566448 0 -1 0
612 204 3 -0.398 9.799569040145393 15.694454512066637 21.77337221929324 0 0 0
98 33 2 0.129 5.13503923417845 25.80831866160892 17.110297683453265 0 0 0
919 307 1 0.269 13.16054321867901 24.429595308135386 21.159812063604758 0 0 0
812 271 2 0.129 13.903458664452634 25.869379606982054 25.6669702293991 0 0 0
813 271 3 -0.398 13.904998188313847 25.73608919864907 24.517674663883962 0 0 0
611 204 2 0.129 10.724500241774983 16.18625637368659 21.282167372859927 0 0 0
610 204 1 0.269 11.95561005206848 16.840858678694993 20.628359712093015 0 0 0
932 311 2 0.129 7.182589469877407 26.70920992279135 23.116835657553207 0 0 0
121 41 1 0.269 11.357360834061492 22.153188864580162 16.448214097015665 0 0 0
624 208 3 -0.398 6.805991888272671 18.91939402748403 17.13795271244229 0 0 0
811 271 1 0.269 13.901409514282992 26.046792942187576 27.19671540735357 0 0 0
418 140 1 0.269 5.204777855361153 20.248209062894283 27.855248722048046 0 0 -1
401 134 2 0.129 10.126995665927312 25.253843356603575 17.062962862330632 0 -1 0
858 286 3 -0.398 2.1393235750446196 20.644066988613528 19.341193956882897 0 0 0
857 286 2 0.129 1.387601925215951 19.880100222446462 18.90539774146695 0 0 0
99 33 3 -0.398 4.292188380702698 26.548421955535407 17.39402035282314 0 0 0
1025 342 5 -0.35 12.364161352779943 23.419303596862086 28.29812173401331 0 0 0
873 291 3 -0.398 4.867431883287584 14.560379745243319 29.70935893608907 0 0 0
469 157 1 0.269 0.7136819312075398 14.775203150423238 15.310018012784344 1 0 0
920 307 2 0.129 12.396917076767899 25.712705667602574 20.78284665296607 0 0 0
487 163 1 0.269 6.743660515092275 27.52556672819941 19.41655119725965 0 0 0
1026 342 5 -0.35 12.345562077179776 21.270983381582152 27.422465226262794 0 0 0
732 244 3 -0.398 29.630328487893916 26.731167164313657 19.988815008463398 -1 0 0
921 307 3 -0.398 11.823205748072342 26.676704814293185 20.49963302951869 0 0 0
309 103 3 -0.398 9.304396266159078 23.18589688640647 27.27743931567256 0 0 -1
856 286 1 0.269 0.38703896865920673 18.863238666787616 18.32534054895133 0 0 0
1007 336 5 -0.35 7.878529425980439 15.993819353803532 28.377701798899455 0 0 -1
1006 336 4 0.7 7.905178637370844 16.780672283572425 29.22961276047143 0 0 -1
381 127 3 -0.398 1.7906051780691363 23.280507745458994 15.717338092725933 0 -1 0
141 47 3 -0.398 29.9170134470804 18.786113334361243 28.04441642709952 -1 0 -1
380 127 2 0.129 1.907590128682972 24.266950428526325 15.12413125329041 0 -1 0
123 41 3 -0.398 13.500246593211529 23.232506476896646 15.216579770206188 0 0 0
828 276 3 -0.398 29.392715640919718 20.84177120389553 15.762151245817888 -1 0 0
1040 347 5 -0.35 0.07525072802362986 20.868898776177357 22.437486105979954 0 0 0
933 311 3 -0.398 8.171411319564177 27.291012738317228 22.967216696762836 0 0 0
454 152 1 0.269 1.026318553425573 27.902435830224167 17.18978177447414 0 -1 0
117 39 3 -0.398 8.917310018113142 26.861870975544754 26.929144764639812 0 -1 -1
470 157 2 0.129 1.0919400193849769 16.26725251213692 15.358075488141562 1 0 0
1032 344 5 -0.35 15.917611332041274 15.389979024196561 28.342299219073738 0 0 0
805 269 1 0.269 23.60705873419369 14.268959224392098 24.01864545847133 0 0 0
734 245 2 0.129 19.206265518006802 13.461696467318445 15.806490705509379 0 0 0
853 285 1 0.269 15.382420266040853 22.360172700708205 24.55601330265133 0 0 0
806 269 2 0.129 22.722825533978565 15.222107909379918 23.193273280636756 0 0 0
382 128 1 0.269 14.813900519619834 14.759924039318049 23.301505159213256 0 0 -1
855 285 3 -0.398 15.379350398149228 21.304064602634586 22.074393819109027 0 0 0
619 207 1 0.269 22.569573919766704 19.01790495904068 16.190089263272636 0 0 0
643 215 1 0.269 15.892035434756338 15.012131969678414 17.699964273633597 0 0 0
854 285 2 0.129 15.380667356677446 21.757129886087004 23.138996615719496 0 0 0
1031 344 5 -0.35 13.851219645198587 15.289307301990268 27.29239893766908 0 0 0
807 269 3 -0.398 22.058502279011744 15.938207278555836 22.57317223534156 0 0 0
545 182 2 0.129 15.827145036554027 18.24509103927295 25.754035663293223 0 0 0
546 182 3 -0.398 14.935858880958659 17.940132298249093 26.425793175433544 0 0 0
1030 344 4 0.7 14.88441548861993 15.339643163093417 27.81734907837141 0 0 0
544 182 1 0.269 17.013472330950627 18.650999821621042 24.859907254739994 0 0 0
333 111 3 -0.398 16.882072098490482 23.316483166117536 26.956466018002445 0 0 -1
733 245 1 0.269 19.778446173598592 14.4870425764153 16.80292166344191 0 0 0
321 107 3 -0.398 14.809346947764134 26.832335058651445 16.43124746224435 0 0 0
320 107 2 0.129 14.814598970020366 27.134812828412745 17.54799659032216 0 0 0
984 328 5 -0.35 15.259456254544373 24.174084904339438 17.935470135900715 0 0 0
1037 346 5 -0.35 16.251204108568647 25.39312743654649 21.663437821087147 0 0 0
315 105 3 -0.398 19.313570543099885 17.654376713538888 17.1277553847789 0 0 0
533 178 2 0.129 25.449025126881196 14.219358957465285 20.172454577642135 0 0 0
644 215 2 0.129 15.99695062122308 16.217315463067315 16.747008056952172 0 0 0
517 173 1 0.269 14.213376250487523 19.801483501745917 16.210347702737124 0 0 0
61 21 1 0.269 24.964796420355533 14.895973845252547 16.28059604120545 0 0 0
532 178 1 0.269 25.02646671805307 15.688007362264573 19.982411808221855 0 0 0
645 215 3 -0.398 16.075773264562056 17.122768256477027 16.031053288964895 0 0 0
951 317 3 -0.398 18.21092056895715 15.871493829487655 25.742519484825984 0 0 0
62 21 2 0.129 26.275337716404593 14.503314094310772 15.573560093505481 0 0 0
616 206 1 0.269 20.057201652375042 17.150458347710455 20.381759076246816 0 0 0
685 229 1 0.269 16.07156971896367 18.4325561073746 19.398655780507294 0 0 0
618 206 3 -0.398 22.326704225937046 16.80410870220907 18.96641141872354 0 0 0
617 206 2 0.129 21.35309856126844 16.952691030664802 19.573588741583915 0 0 0
728 243 2 0.129 26.444229953892766 17.519407502202135 24.797471776466434 0 0 0
620 207 2 0.129 22.740909739931883 17.906192534508996 15.138262508587943 0 0 0
801 267 3 -0.398 19.398577012355023 25.23592312102542 18.346384096003277 0 0 0
982 328 4 0.7 16.106713521390095 24.114833304271695 17.14537876671191 0 0 0
729 243 3 -0.398 25.494388746016707 16.949416582448844 24.46346424478567 0 0 0
687 229 3 -0.398 15.143909965588092 17.907244893430725 21.87601415395109 0 0 0
686 229 2 0.129 15.541871528307981 18.132600872123 20.8132393530336 0 0 0
577 193 1 0.269 19.91496941256968 21.93735178122002 17.191528346072296 0 0 0
578 193 2 0.129 21.300439394918058 21.896306734185185 17.862638048076974 0 0 0
579 193 3 -0.398 22.34134119334473 21.865469643653164 18.36684189562205 0 0 0
652 218 1 0.269 24.41563556872089 23.597281161889487 25.15128401072146 0 0 0
653 218 2 0.129 24.973241380862433 22.256453549674806 24.63858812368079 0 0 0
654 218 3 -0.398 25.392169903360983 21.249091505952475 24.25340036958595 0 0 0
721 241 1 0.269 21.72246215573182 24.478231110514947 20.87055940703606 0 0 0
722 241 2 0.129 22.674070441835227 25.26572273049383 21.790286876606526 0 0 0
723 241 3 -0.398 23.3890125113298 25.85736416186757 22.48127693004356 0 0 0
736 246 1 0.269 22.510536949493442 26.084816623136657 17.304139890315437 0 0 0
737 246 2 0.129 23.751190377832263 26.079645881892286 18.216473345903744 0 0 0
738 246 3 -0.398 24.683291687304997 26.075761110710644 18.90190828623859 0 0 0
760 254 1 0.269 21.992341072615243 19.077979033880624 23.783311775488517 0 0 0
761 254 2 0.129 22.240138100887176 20.505735324278003 23.26205501724933 0 0 0
762 254 3 -0.398 22.426307686413548 21.578406771024603 22.870435491741056 0 0 0
796 266 1 0.269 17.82311622545154 21.425459897945526 20.428044819403507 0 0 0
797 266 2 0.129 18.590185813969523 20.789569758748602 21.602288396027774 0 0 0
798 266 3 -0.398 19.166484199628822 20.311826323001306 22.484496070153927 0 0 0
799 267 1 0.269 18.73936728963504 27.102295602699535 20.1782971128033 0 0 0
800 267 2 0.129 19.115779218811447 26.036587919429927 19.132265950077297 0 0 0
950 317 2 0.129 18.668835814105908 15.169430692262848 24.94497952995831 0 0 0
1036 346 4 0.7 16.396602707782517 25.844404820023133 22.722120006877034 0 0 0
778 260 1 0.269 25.30029996210828 20.546650815682053 20.59362208583686 0 0 0
779 260 2 0.129 26.820542927739382 20.498010681078807 20.352592081988707 0 0 0
983 328 5 -0.35 16.953970788235825 24.05558170420395 16.355287397523107 0 0 0
673 225 1 0.269 24.39952403746556 22.817429820196462 16.38759632966439 0 0 0
518 173 2 0.129 15.453767888248677 20.585265964188554 16.67801600029432 0 0 0
753 251 3 -0.398 23.995102456647114 21.25731305437325 28.067294924655204 0 0 0
511 171 1 0.269 20.0960937247519 17.694290278226344 28.15906553595988 0 0 0
519 173 3 -0.398 16.385672514800405 21.174120710322413 17.029374584887613 0 0 0
780 260 3 -0.398 27.96269949347651 20.4614674111204 20.171506553123574 0 0 0
676 226 1 0.269 26.205352883897366 24.218393792485287 21.30570520690452 -1 -1 0
515 172 2 0.129 25.993326622361188 25.325757425154805 28.915012059026033 0 0 0
191 64 2 0.129 21.95946969991715 25.683083780120977 27.74792594285153 0 0 -1
192 64 3 -0.398 21.727728971454106 24.80398140073235 27.032297379052945 0 0 -1
190 64 1 0.269 22.26792321921974 26.85319412088026 28.700447972453805 0 0 -1
677 226 2 0.129 26.64676397521763 25.58537688002223 21.86078491906066 -1 -1 0
678 226 3 -0.398 26.978395554865383 26.612389498386026 22.277815585920827 -1 -1 0
752 251 2 0.129 22.923721788856604 21.49179610817155 28.435819228014356 0 0 0
525 175 3 -0.398 11.318668525716724 28.44210182379089 29.68303442257788 0 -1 0
703 235 1 0.269 19.555663161702316 23.346734818455722 25.07111405158407 0 0 0
516 172 3 -0.398 25.003856841303165 24.775879776273786 29.15424651230255 0 0 0
704 235 2 0.129 19.184014742165864 24.10560730651055 23.783639780334525 0 0 0
705 235 3 -0.398 18.90479576722841 24.675747221237454 22.816362032389254 0 0 0
666 222 3 -0.398 21.860296032181736 15.481163730285875 26.79700303253484 0 0 0
665 222 2 0.129 22.974893553352135 15.680379770081489 27.034982727653418 0 0 0
314 105 2 0.129 18.936446250210494 18.11150607606189 16.134045661755092 0 0 0
664 222 1 0.269 24.45845464462474 15.945542001097257 27.35174048952258 0 0 0
832 278 1 0.269 26.81378471702822 18.7241983498036 16.27579217914815 0 0 0
13 5 1 0.269 24.713086063242056 27.28832957131209 25.01781613206364 0 -1 -1
514 172 1 0.269 27.310339122645846 26.057660259447612 28.596584178260393 0 0 0
319 107 1 0.269 14.821589561441805 27.53741936724801 19.034421531756767 0 0 0
861 287 3 -0.398 26.860122524272537 23.124402574690652 18.040393831165154 -1 0 0
700 234 1 0.269 27.630902922560033 22.80768782387277 27.40223120192886 -1 0 0
724 242 1 0.269 19.80719105291225 27.984515026691643 23.779668696667112 0 0 0
614 205 2 0.129 18.338533159232863 27.81830524796147 27.10140013788574 0 -1 0
512 171 2 0.129 19.102929295240372 18.857938346802985 27.982578741976617 0 0 0
727 243 1 0.269 27.708495692984496 18.278081673697436 25.242045327709626 0 0 0
613 205 1 0.269 18.136914259121966 26.292365010124243 27.150960299981577 0 -1 0
513 171 3 -0.398 18.356766149172294 19.73218562949336 27.849984442860624 0 0 0
332 111 2 0.129 16.92587610979354 23.051663971018744 28.081899713295563 0 0 -1
833 278 2 0.129 27.363495666643992 17.9238977631676 15.080410715805616 0 0 0
860 287 2 0.129 28.00859179738173 23.14242495055648 18.17947122937283 -1 0 0
594 198 3 -0.398 27.892828487637754 16.2246052955776 18.044208318171236 0 0 0
1038 346 5 -0.35 16.542001306996394 26.29568220349977 23.78080219266692 0 0 0
751 251 1 0.269 21.497683562065433 21.803899740712072 28.926335586850215 0 0 0
592 198 1 0.269 28.589539627683767 13.637294588017994 18.351170677234446 0 0 0
927 309 3 -0.398 28.700472735913568 26.114924936199426 15.302812906063565 0 0 0
207 69 3 -0.398 28.928198510183535 14.118080498930723 25.795638460743252 0 0 0
880 294 1 0.269 29.651144509251445 25.94814252049237 23.573845693792965 0 0 0
730 244 1 0.269 27.525967562983272 27.094397328583156 18.341533021226454 -1 0 0
370 124 1 0.269 28.300932884340718 16.189730781815264 29.398939623709918 0 0 -1
702 234 3 -0.398 29.19018176017456 21.80102524549045 25.445425396578823 -1 0 0
955 319 1 0.269 29.01326157814355 17.72875992739024 21.592433605629214 0 0 0
859 287 1 0.269 29.53723715657633 23.166413246868824 18.364587213158334 -1 0 0
1041 347 5 -0.35 28.82639938844171 22.805615795610535 22.1693489801262 -1 0 0
731 244 2 0.129 28.72756779448583 26.886991153953932 19.282138976118887 -1 0 0
881 294 2 0.129 28.731898552892734 25.93116408217674 24.80928027496315 0 0 0
957 319 3 -0.398 29.038415646776983 15.058782163866105 21.212440164738688 0 0 0
1039 347 4 0.7 29.450825058232674 21.837257285893944 22.303417543053076 -1 0 0
593 198 2 0.129 28.191714208450964 15.114661473313431 18.17589369059843 0 0 0
956 319 2 0.129 29.027624672580142 16.204189754669745 21.37545551924752 0 0 0
882 294 3 -0.398 28.041270259706348 25.918408203520123 25.737460671335814 0 0 0
701 234 2 0.129 28.52125865482788 22.23287863933114 26.284885654936254 -1 0 0
707 236 2 0.129 12.127927731062726 29.48865715996678 23.68985397483709 0 0 0
524 175 2 0.129 11.426218206853823 29.11812445271603 28.750256061299858 0 -1 0
903 301 3 -0.398 1.373055821137868 28.53990804056746 27.896196100565035 0 -1 0
571 191 1 0.269 10.667640199380806 0.08914455573429445 20.442974095134453 0 1 0
572 191 2 0.129 11.856821202253991 0.002575463087055212 19.46831808678895 0 1 0
573 191 3 -0.398 12.750251345321704 29.93753621620858 18.736060293506 0 0 0
455 152 2 0.129 1.1058051871612564 28.801072156718448 15.941689378951414 0 -1 0
115 39 1 0.269 7.767900879237416 29.018961099755046 25.78913168247692 0 -1 -1
769 257 1 0.269 2.4689282976992213 28.33209659936952 21.473768357035404 1 -1 0
116 39 2 0.129 8.42421903788355 27.78725224128866 26.440084647449428 0 -1 -1
489 163 3 -0.398 8.473253316870819 29.35017445511867 18.440270303816668 0 0 0
488 163 2 0.129 7.731266341840129 28.567426535190755 18.859090101263288 0 0 0
706 236 1 0.269 11.53732037347754 28.067795311400342 23.75258001771656 0 0 0
910 304 1 0.269 3.277988231203171 28.32174599491273 25.214967097410383 0 -1 0
770 257 2 0.129 3.977915200786576 28.60672818449731 21.612101356571507 1 -1 0
911 304 2 0.129 1.9012938214551203 28.818635127520686 24.735995603409773 0 -1 0
912 304 3 -0.398 0.8669850993262251 29.191947287538486 24.376144942008008 0 -1 0
1017 339 5 -0.35 5.824191887111352 29.322747218437843 28.63483632723533 0 0 0
831 277 3 -0.398 9.039855642454526 13.33773762309132 15.255147043330544 0 0 0
923 308 2 0.129 15.413872112518558 0.08953396362540432 26.52677614643759 0 0 0
768 256 3 -0.398 24.750254499796284 28.56061463023116 16.668164118969113 0 0 0
14 5 2 0.129 23.33602294160846 27.83489416144897 25.43801169111279 0 -1 -1
615 205 3 -0.398 18.490009177043458 28.964742166908017 27.06416565246699 0 -1 0
38 13 2 0.129 21.27424657400828 29.25910199916924 16.25025137891657 0 0 0
767 256 2 0.129 25.389879756461596 28.776912912824866 15.728619769838842 0 0 0
725 242 2 0.129 19.768505083696795 29.522292761473288 23.85276475809207 0 0 0
37 13 1 0.269 21.4671944724268 29.8884546911372 17.642474887412206 0 0 0
864 288 3 -0.398 21.43853795016067 28.660218394236328 20.48686649498081 0 0 0
930 310 3 -0.398 15.906726210821391 28.49336136218714 21.94108114854199 0 -1 0
924 308 3 -0.398 15.030815045532266 0.4132379247449978 27.569432383644767 0 0 0
15 5 3 -0.398 22.301437206718806 28.245527428194666 25.753704068917898 0 -1 -1
804 268 3 -0.398 17.68687036353467 29.75308669370551 16.8285909449092 0 0 0
863 288 2 0.129 22.591335991213334 28.59150738687641 20.557467302432652 0 0 0
862 288 1 0.269 24.125743064005995 28.500051076302277 20.651438990830087 0 0 0
827 276 2 0.129 0.5258770337116364 20.63319979417385 15.656831613589528 0 0 0
496 166 1 0.269 28.09627136264364 29.62114957977618 22.29277793355437 0 0 0
794 265 2 0.129 28.776387716712147 29.56681931767116 28.725171881746096 -1 0 0
1015 339 4 0.7 6.336160684943504 28.40107519296258 29.11858070963459 0 0 0
262 88 1 0.269 7.16957308791096 2.8125356614461388 29.10202216096565 0 0 -1
371 124 2 0.129 28.43364031750453 14.693001842693233 29.73626916581614 0 0 -1
272 91 2 0.129 6.807974768468544 8.684023830529839 28.71054582750446 0 0 -1
307 103 1 0.269 8.818076463762887 21.49927451408336 29.3250249727275 0 0 -1
12 4 3 -0.398 1.406352084970024 2.655619929207134 29.489987397226542 0 1 -1
273 91 3 -0.398 7.167277177385368 9.637670813961172 29.258367157811033 0 0 -1
399 133 3 -0.398 17.939813598426248 2.6778023151495614 28.921372873920856 0 0 -1
786 262 3 -0.398 21.978821452730344 0.3072084456206058 29.079523980475994 0 0 0
9 3 3 -0.398 11.516755179774986 9.599130040144606 15.419956790137181 0 0 0
398 133 2 0.129 17.804647364326698 1.6230089215947707 29.37721274281389 0 0 -1
431 144 2 0.129 5.458453808330674 6.6795678328266055 15.006701949135975 0 0 0
775 259 1 0.269 22.895867554088955 9.077952185753084 29.857625694544453 0 0 0
44 15 2 0.129 16.02937695053332 11.450804933317128 29.377245807924293 0 0 -1
103 35 1 0.269 28.78303964688539 8.40143277564868 28.27393321636947 0 0 -1
1022 341 5 -0.35 10.93561967609568 14.9177697385573 28.320928225044362 0 0 0
76 26 1 0.269 2.660277647512284 16.772453698405897 29.29893135180197 0 0 -1
543 181 3 -0.398 3.656063064927712 22.608529487610724 29.642077029104758 0 0 0
308 103 2 0.129 9.095767415075505 22.46234401848736 28.155843692837028 0 0 -1
419 140 2 0.129 5.500800871883317 19.98358276041905 29.343181278895777 0 0 -1
1016 339 5 -0.35 6.84812948277566 27.47940316748732 29.602325092033848 0 0 0
1021 341 4 0.7 11.501243823410956 14.143270766592872 28.973477584403593 0 0 0
244 82 1 0.269 14.932367545133125 18.29342567999927 29.697631493566995 0 0 -1
39 13 3 -0.398 21.12928506850813 28.786270139034873 15.204275665066277 0 0 0
406 136 1 0.269 4.144946013944348 5.064845987982787 29.732890515645316 0 1 -1
819 273 3 -0.398 4.184838459314168 9.680347752020682 28.987854047460715 0 0 0
397 133 1 0.269 17.624737251523488 0.21904882991423502 29.98394860979338 0 0 -1
331 111 1 0.269 16.984180498217658 22.699182069158645 29.579884061395305 0 0 -1
667 223 1 0.269 20.783662795533324 4.039545111901272 29.747828501080186 0 0 0
818 273 2 0.129 3.6016648453409044 9.35777201303744 29.933635432657564 0 0 0
11 4 2 0.129 2.007813710783594 1.7368148195002169 29.854253897264606 0 1 -1
372 124 3 -0.398 28.533343239693185 13.568511334534673 29.989704412710232 0 0 -1
456 152 3 -0.398 1.1655233918574788 29.47621646175344 15.003999183094407 0 -1 0
104 35 2 0.129 28.89160263270249 8.43655453185302 29.80970030168926 0 0 -1
826 276 1 0.269 2.034147167591981 20.35558529895226 15.516648179162845 0 0 0
1023 341 5 -0.35 12.066867970726232 13.368771794628444 29.626026943762824 0 0 0
231 77 3 -0.398 14.963501000140758 27.187448681516344 29.944153832965437 0 0 -1
674 225 2 0.129 24.44715455449115 21.956703302883366 15.111476744264259 0 0 0

Velocities

179 0.003295567077320067 0.0014115917277977856 0.006467258875683893
196 0.0017848337881286426 0.0019961030409497396 -0.005924121645851427
197 -0.0010268900073723925 -0.001418527787749924 -0.001801085257463154
198 -0.003139334443342974 -0.003983935494766486 0.0012965466265402411
221 -0.0003437420144999229 0.0005868309762310232 -0.0015113194463956257
226 -0.00034084053118070253 0.005591250376553956 0.0038236595498151935
227 -0.002376572912151458 0.003705648011186393 0.0030267433046107894
228 -0.003906016006166502 0.002288997402919986 0.0024280211645448845
295 -0.0009688584362312911 -0.0023388606122956078 -0.0018590413605652292
296 0.0026113252607888725 -0.004581637706627116 0.0021298121162507894
297 0.00530111262277091 -0.00626663322490085 0.00512663255305348
322 -0.004261663932592266 0.0038963756502036844 -0.003600680550064894
323 -0.003349502811022097 0.004406004469271468 -0.0028962516740048973
412 -0.00013361824607597552 -0.004725110976923699 -0.004203662828341429
413 0.0007424218248131394 0.0021381669583031334 -0.002190936804739534
414 0.001400589592357753 0.007294538757691095 -0.0006787783571373302
440 0.00026636706108488714 -0.002983589061241134 0.0026811589742666065
441 0.0007752777257942424 -0.0029003276685161737 0.002491122753381743
958 0.0026928695443619154 -0.0024765327741656557 0.0005716298226460145
493 -0.001675302718990166 0.0001542225635035269 0.002891020449746341
439 -0.00041100754881347537 -0.003094412349742811 0.002934102604485007
959 0.003389691700965955 -0.0033087347059764577 -1.7374204751107135e-05
86 -0.006597741454218533 -0.0013134201986064083 -0.0016437064252215277
85 -0.01137912978785734 -0.0007096063231095036 -0.008329596274216668
222 -0.00024528378974336673 -0.0016182000956299321 -0.0029379856109413116
305 0.003536067254772908 -0.000746261520485527 -0.0018816462420746137
304 0.004326917494782319 -0.0008894488175640139 -0.0020827950816620926
960 0.003913213282258729 -0.0039339669365641835 -0.00045989216559426806
220 -0.00047479271988030123 0.003521790224861851 0.0003876139100437439
821 0.00394608785525477 -0.0002375452143300597 0.0024169725405179493
494 -0.004196707890782273 -0.0018854000600425625 0.0005283008017282836
178 0.0028392957895908514 0.003150173686265935 0.004171404835268736
495 -0.006091036321797507 -0.003417765888252186 -0.0012468074013606118
971 0.003815757098495075 0.0028997753193402516 -8.267862816461428e-05
990 0.0009105588943882385 -0.005616427141860751 0.0032510398928936885
970 0.003691074365609768 0.0026691132245997336 -0.00030973628515510853
988 0.0038699925890238033 -0.00490610313417833 0.0011142591778459463
972 0.0035663916327244613 0.0024384511298592157 -0.0005367939421456033
306 0.0029419024965320717 -0.0006386850901479891 -0.0017305233801248
160 0.001773570731718039 -0.002683932151746233 0.0007753883931667202
989 0.006829426283659372 -0.00419577912649591 -0.0010225215372018012
161 0.004223422547828662 0.00062975031239196 0.0025718500514290052
25 -0.00015263561038376846 0.0016939241762683223 8.16543981977337e-05
163 -0.0054273287121075564 0.003143144671410658 0.00046410521680324824
627 -0.0039040603853753705 0.005248516119769269 -0.004267650979097129
626 -0.0017097992545906824 0.0014042047979085823 -0.0032149221174850784
625 0.0012108248952869519 -0.0037126832190883616 -0.0018137099767050143
1009 0.001033220161601351 0.003498784068828398 0.00030092442699459506
180 0.003638363103230917 0.00010539736029931243 0.008192131034619177
820 0.004571877473682874 0.0009734542763152769 0.007742531236095108
981 0.0013656713398086037 5.185977189768853e-06 0.0027139465604308255
979 0.0019528462506102353 -0.00017566426479523556 0.003228318154602261
966 0.0008025045839555002 -0.001683015167182206 -0.004382137797939502
693 0.002181818715832992 0.003221204110027372 0.0008524396865129994
1010 0.000620872542418185 0.002861150673737687 0.0015469278486416507
1011 0.0014455677807845174 0.004136417463919108 -0.0009450789946524594
692 -0.0012478085782723753 0.0011961552990678527 0.00029080322411714955
407 0.0015323037599468973 -0.002121733324438333 0.0036018240899466066
408 0.0003022507199746357 -0.0044693503369329255 0.0009795207990083814
187 -0.004809671409496191 -0.0007189678045767148 0.005012866000259412
980 0.0025400211614118673 -0.0003565145067802398 0.0037426897487736984
254 0.0015821915872804282 -0.002343687871559141 0.004910685967936793
152 0.003925165983367058 0.001284685978944523 0.0008768344316852112
24 -0.0037083040918380653 0.010499672583533189 0.0019595452690965155
87 -0.0030054906087509372 -0.001767064779093362 0.003379393935354689
151 0.0014109920399311246 -0.0031373791439865007 0.0036073882063229305
153 0.005814061601909502 0.00460697776286087 -0.0011746270730263767
253 -0.002887664822916654 0.0004977216194680129 0.0041622990543655446
783 -0.004181433747682582 0.006766989087002403 0.000536163438810668
817 -0.0018198726083180914 0.002727443812185624 -0.004678767927235102
23 2.4306302066065284e-05 0.0038782266977921247 0.0015699543617295503
188 -0.0053440835677850355 0.0001394301931742898 0.004215283653972865
691 -0.005812740326692673 -0.001499242426841971 -0.0004567509263492353
136 -0.001862137127821586 0.004902424344560191 -3.331776478472149e-05
79 0.003885522121230684 -0.0006853072211560004 -0.00668004407604446
947 -0.002272859914062913 0.001159216093238645 0.00014718832893871652
787 -0.006077022430233684 -0.004100138009283456 -0.0010054851334853664
186 0.0013131972387780437 0.002049165848974243 0.008544296370449988
52 -0.0005529019502084273 0.0017660538643355708 -0.0009217059152525295
255 0.004940388903253167 -0.004478435132025643 0.00547294808417182
457 0.0021270672377706173 0.00011530481523528249 -0.00863294046529589
204 0.0014762565200355006 8.844871511980742e-05 0.001959983402859269
1049 0.0017856549462464124 0.0031783512198074798 0.0016312505952443379
1005 0.0013496920753611101 -0.00033287852586183194 0.00414018726605127
185 0.002347668598475253 -0.001346687599580358 0.00408581607796244
948 -0.0031313613141679573 0.0012821752608571078 -0.0014659042416495858
36 0.0011822948385951616 -0.004312310777925772 -0.000630421599319505
1048 -0.0004240045030650621 0.0019217469333362314 0.0021087564955462328
312 -0.001008845523776097 0.0006240486933321191 -0.0023859784310624587
965 0.003967370530084776 0.0008745435648893066 0.0031404916095405804
311 -0.0025032213393437345 0.0008108838233556115 -0.0025339711399421727
310 -0.004492278172510679 0.0010595667103358883 -0.002730953656515
432 -0.003780276991898436 0.0008220882156426523 0.000309302539275245
782 -0.004930027963481187 0.004047432823123184 0.0022426650188598738
70 0.000630469184722231 -0.004376958572482548 -0.002180199972467735
766 -0.002773457252449063 -0.0014413747305247176 -0.005504278156258618
458 0.0033276775033656025 0.0011119547581107728 -0.0018543847564619726
26 -0.0006884665264289559 0.0028017972032285546 -0.000645305716543181
324 -0.0026641973450112597 0.004788887939181484 -0.00236701517426372
591 0.0030240216431152277 -0.001512348817373425 -0.0007884778538166139
964 0.002384937557020137 -0.0004042358011464576 -0.0006208230941994636
53 -0.002419012305478461 -0.0003360727175379651 -0.0014683671638029278
46 0.0005093447713860142 -0.007303132907369564 0.0009620502946859767
35 0.0037255219608298955 -0.0020217310081114223 -0.00024861126746274497
366 0.00605420959708388 -0.0022143872628937276 -0.0039571485435155465
10 -0.002384444246688575 -0.0010695873018753432 -0.00506106745795302
946 -0.0011301700643120331 0.0009955539340921998 0.0022942605490821814
822 0.0034759329276435277 -0.001147367558925291 -0.001584112791159175
111 -0.00617241218261478 -0.0031489110977671094 0.005626239929967236
110 -0.0024422172839427946 -0.0006666472407502297 0.0024009189157730357
537 0.006755747682186189 0.004009713663458013 -0.005537103953239857
486 0.0013143649205838738 -0.00851174536703447 -0.004106595437222625
485 0.0008343606089532199 -0.007135270500857969 0.000803855063762872
109 0.0025227785189568144 0.002637316752167645 -0.0018920753468536478
184 0.0037245794834654972 -0.005866665396273621 -0.0018485483562906686
54 -0.0038210185918728934 -0.0019153976884650273 -0.0018790730498891703
536 0.0032454358583996206 0.0028714644146029243 -0.0047075202515751416
480 -0.0020164682948156714 0.004692202462999751 0.0032204274762102636
82 0.009579007005357677 0.007041904166733066 -0.0016375866265371558
29 -0.000848212611231735 0.0067690223370807595 0.001955001771240744
31 0.0007326479559431433 -0.0011019293012223517 -0.003520043411541705
32 0.0016543595144312008 0.0017337886840953158 -0.0019228121178669186
33 0.0023468402112952797 0.0038642599237138494 -0.000722814321255406
94 0.001520722199845639 -0.000950082127921697 -0.002762794678367468
95 5.541872081523869e-05 -0.0028564326514661123 -0.00033870869945074793
124 0.0050130610805714905 -0.005121726177738765 -0.0021899055962325054
125 0.003201124041989494 -0.0013572820058194673 -0.001104622986513923
479 -0.002929409853510717 0.0020971646527442535 0.002422655425598711
478 -0.004144561107089257 -0.00135690468847741 0.0013607980721485947
175 -0.0019086974718200312 0.006234326310443485 0.0019797607893642355
415 0.003140491644334561 0.0004951024476221958 -0.0008662790008321078
416 0.0033755759624816807 0.0014377218249736578 0.0006136901824502963
417 0.003552194505401305 0.002145910538996803 0.0017255891078124638
748 -0.001258367177202623 0.005501666051822843 0.003370392468313053
749 0.002325408318318823 0.002453606017115006 0.004266056183064075
90 -0.0006762528100029208 0.0011909678114566643 0.0025276398450717304
89 0.0004335794998588918 0.00053108890241133 0.0019592260338762483
88 0.0019107979589662364 -0.0003472287466204884 0.0012026510388537409
101 0.003621273283488528 0.0003464765167626387 0.0006734867738050195
102 0.003947072934797788 0.0001840266056348764 0.002097075114809695
100 0.0031876246551252943 0.0005627019818765157 -0.0012213499117154666
286 0.0008514600031642907 -0.0022629196131556182 0.0023884187128114433
303 0.0037166737308249155 0.003988053166828891 0.005345209757979252
421 -0.002851723622760276 0.0005522846227719138 0.002263806696141242
908 0.002936110489502321 -0.00418496632156211 0.001319932924678687
907 0.00020059914681186918 -0.000814991311517362 0.0004334972590489351
302 0.0026811215460663907 0.0037994491475269437 0.005523769339246397
317 -0.0022732618369884004 0.0011542584494966472 -0.002103520795644264
316 -0.006666530318331021 -0.0050483451340382094 -0.002437543912733443
631 -0.00032879038630296317 -0.0018394095044922387 0.0005344131821558416
422 -0.0023415541237453695 0.00020986324423322657 0.0029936227230085498
318 0.0010273950675008313 0.005814266466477041 -0.0018525696615714388
474 -0.004444242290720132 0.005396973508735402 0.003194940189983465
257 -0.0033974781599748287 0.007490960580027929 -0.0016474670215007926
473 -0.003347714234633966 0.0006648326720613696 0.0008121356220189519
909 0.004991296608653531 -0.006716824170017811 0.0019859108890511617
472 -0.0018882041167664625 -0.005633781751860871 -0.002359445220388449
287 -0.000742474741330509 -0.002396749967127411 0.0011913217563201386
632 0.000643721489103745 0.00018309197388473222 -0.0003648238087678288
250 0.002522462909496854 0.002553112033678352 7.615228387665253e-07
96 -0.0010454618799887717 -0.004288671324025125 0.0014825039483457698
258 -0.0035899225886794465 0.007573279061643228 -0.0018091800209960134
134 -0.00017742900561830823 -0.0027350853907993885 0.0020334652741084117
301 0.0013027720520922205 0.0035484118184647157 0.005761437234796446
535 -0.0014268893003137025 0.0013564221991864698 -0.003603320683240083
288 -0.0019399958448243304 -0.0024972965382607645 0.00029194436757959364
176 -0.0008455783165136689 0.003345553128280814 -0.0013164647222217243
423 -0.0019582644416932618 -4.739749275979967e-05 0.003541932556180935
166 -0.00121451204299312 -0.005230032747488907 -0.0009962856228783493
135 0.0017047389983843332 -0.001096447394238224 0.002989571150485818
248 0.0008914398548166046 0.00014670657299541522 -0.0002095729424636194
251 0.0021420504653705276 0.0025231645104674657 -5.8184031429576705e-06
249 -5.85481621216636e-05 -0.00032796410433957613 -0.001140645876294966
941 -0.001036870048363968 -0.0027722776795776095 0.0012407387415077841
940 -0.0025446564343290052 -0.0034456444501900223 0.0006764263517310998
330 -0.0038112022842147065 3.582980286201496e-05 8.991850947345976e-06
256 -0.003141329136461335 0.00738139233310696 -0.0014322224067880515
810 -0.005143285252970453 0.00031612100839723553 -0.0024830694625770262
776 0.0022397353965278805 -0.00016071345187669697 0.00588085881232455
30 -0.0019389093232342813 0.006758511479432855 0.006614835845104282
633 0.0013743683980943688 0.001702594707964056 -0.001040419392208542
750 0.0050178941938502 0.00016360247155853798 0.004938967168756878
28 0.0006035358213386368 0.006783012588401225 -0.004247370289044362
144 -0.003053074712637799 -0.004150022130169331 0.0002160922189100036
143 -0.0015870762564392687 -7.259142524722393e-05 -0.003147571989608859
247 0.0021559010009574294 0.0007785067831042203 0.001029711688565137
126 0.001839818098067828 0.0014709400116549606 -0.0002892515712902866
777 -0.0010877895605828545 -0.0010211306932869186 0.0030207469703736286
809 -0.004842593624559573 0.0015295332494522083 -0.0015359378446036544
836 -0.0033434110909433975 0.0010411871621800553 0.0027662261883935864
837 -0.0036280248763208836 0.00011099221302408977 -0.00013477600684776853
43 -0.002282510299971056 0.002134319036016315 -0.0006715614434104973
942 9.592790524742801e-05 -0.0022663780993188026 0.001664705907073776
952 -0.0017471643341335846 -0.0024623970473361947 0.005579205727388836
914 0.0008684431625875468 -0.005382042501355889 -0.001153594687023369
60 0.004371207278318717 -0.0018631989420278122 -0.001132587813527749
219 0.0023902806534695517 -0.004336309237814704 0.00047016265047792244
218 0.0024820620756367457 -0.00238257955155286 0.0004583498843172621
170 -0.00034162839748234913 -0.0025425242304080637 0.0036279541127340496
409 0.0005722031001342172 0.003939486682739893 0.0008364061914531942
682 -0.0065860489751976515 0.0030485933475960726 0.0011056209262041042
59 0.0033301700301707725 -0.002931178345858143 -0.0002388595725154973
208 -0.001447620108751881 0.0034824696962440097 -0.0017628943656477175
329 -0.0005753177434350447 0.0020696749563402445 0.0005549695527651257
995 -0.001257099640762823 -0.0035348894016432398 -0.002538027279014636
968 0.0028597569270838695 -0.002268913539872822 0.0015599156835786115
48 0.0022122077196820257 -0.004122661974458124 -0.00024714325735759456
999 0.002995146297656973 -0.002488485721575368 -0.003633707702500068
279 0.003993575795719325 0.0021438393314516984 -0.005973424764565537
268 -0.0017732832296104032 -0.0022263974813738372 0.002271376263976445
994 -0.0019498116961742143 -0.0010755329475877038 -0.0015331512316029104
354 -0.0019266770333641776 -0.002760547389501552 0.002088642320486343
763 -0.0012400153925967864 -0.003792704569708896 0.0008725404892123733
252 0.0018562470901405531 0.002500664975172014 -1.0761892987668456e-05
986 0.0018174497482732698 0.00015234748804596708 0.004529142281794212
913 0.0007500651670787533 -0.00784459204116845 -0.004363236194151831
484 0.0001954611794707595 -0.005303143194106201 0.007339804736638999
57 -2.946525894792387e-05 0.0007554833908869654 -0.006244008522881468
72 -0.002084016598577697 0.0018187711376412724 -0.008233438870319569
411 0.0017952188575689092 -0.0004398172459000936 -0.0016125413414894902
410 0.0012705509927739753 0.001438883030494591 -0.0005619546542018806
142 0.00036420950202723 0.0053545851396447795 -0.007624704989711755
47 0.0014816877229528909 -0.005487068674264776 0.00027159494794993486
169 0.0006453108052277737 -0.003940656490496974 0.003988324559321691
34 0.007110629798549414 0.0010270959975187388 0.00025958917424806786
137 -0.0016420067313582943 0.003990201205488855 -0.001030325595084834
71 -0.0009195152818264813 -0.0008391670435279059 -0.005636628560785054
56 -0.0013413143982000002 0.0005680073356376458 -0.0036278952167067106
138 -0.0014766230503790532 0.0033048491458099374 -0.0017793762831739438
55 -0.003087423019157821 0.0003184713589012956 -0.00014577378930038382
105 -0.0035479347848890374 -0.0008860936977819657 -0.003851485651465412
621 0.0017669241072346387 0.005272239815288264 -0.005469046238050602
360 0.004131786606751466 0.0009684937443352746 -0.0026900008885447765
93 0.005265712141068345 0.003971126907380184 -0.0056013609190761786
829 -0.004144397869458525 -0.00483190696882516 0.008606038684002879
953 -0.00029728526172858184 -8.395476941138954e-05 -0.00024547113020936785
77 4.314411038073684e-05 -0.0003192527862373331 0.00078118014816517
365 0.0036717745442831364 -0.0032990674180562525 -0.004062080217657163
541 -0.0034359951683922084 -0.0019469976603302295 -0.00420218185101303
80 -0.0001954560496640068 -0.001186543328948465 -0.0048621740269711436
81 -0.0032614896494855437 -0.0015631213657769602 -0.003496410619972552
658 0.0003884835717785492 -0.002137248114057055 -0.0028310010266974868
491 0.0030319645330426637 0.001864748192827484 0.002851706725225291
22 0.004992517198014522 -0.004935106633272034 0.001051397752096772
1050 -0.002633663952376542 0.0006651426468649827 0.0025862623958481296
427 -0.00292024048466992 0.002835034757248579 0.0025918615528903346
492 0.0037823540689362303 0.0048447627016333554 0.0046380581909853755
428 -0.0038297784466241793 0.0008301075031983698 -1.9829066492910207e-05
429 -0.004513113136222289 -0.0006761917389679175 -0.0019819888370295473
659 -0.0011105644110175603 0.00012504063159177192 -0.00012373614343978842
364 0.0005006855370980508 -0.004742807641868083 -0.004201747268805037
660 -0.002236797213676717 0.0018246952281604106 0.001910228447423298
1 0.0015420895331368237 -0.004843965411350933 0.002421675230388158
2 0.0018646512616444632 -0.004376389173813639 0.0022051244732151625
3 0.0021069914693609164 -0.004025099753793737 0.002042430170585842
74 0.00173991672734267 -0.003991866752049335 0.0022467779509609902
113 0.0021968450400889706 -0.0027206113631990194 0.0020441751463613047
118 0.002148762538925303 0.0030919487043535756 -0.0009210030723896714
119 0.000713281319376828 0.0003235742627291189 -3.0311785474576198e-05
120 -0.0003651938566086176 -0.0017563018599718555 0.0006388634216428022
241 -0.0019438688497374701 0.00036119729933341955 -0.002953295351028718
242 -0.0025581959771463327 0.00016888686628504718 -0.002795401253800606
261 0.00146446738900252 -0.004455377726422884 0.0009301166797537903
337 -0.0037468215654869776 0.0030438988245903064 0.0002448969937262203
338 -0.00468941088196642 -0.0012719139887507535 0.0017192096833475495
339 -0.005397577011295452 -0.004514378550462178 0.002826858892368251
420 -0.003576032048186835 0.0012590854119947184 -0.0036519757816973566
460 0.003821782060287254 0.0051947707912832234 -0.000931924302019254
461 0.002748024467471968 -0.0031015275603487667 -0.006063702982580692
73 0.003628812860749159 -0.004542761107649161 0.006469602998015242
75 0.00032079151542623204 -0.003577980538134398 -0.0009258250227025073
466 0.0007911048684075119 -0.002445810149893375 -0.003146953550658588
150 0.004672764460797862 -0.0010912278355764543 0.00036251935023941413
467 0.00134415201318515 -0.0028751487817131535 -0.0017077930976241195
149 0.0028157091758564583 -0.0026125209839383975 0.0011474239929187744
468 0.001759655614813544 -0.0031977103382167136 -0.0006265537182988748
284 0.0007396343665229112 0.0010765217593042891 0.0001356856304217173
285 -0.0032747908132804643 0.00427981206608983 0.00010581176000562116
283 0.006082948780435795 -0.0031871490034007543 0.00017544860400928086
389 0.0011375705163992915 -0.0007440655367089105 -0.0023988839430605755
64 -0.006538564349732387 0.0034485914490681733 -0.0004468486141118086
148 0.00034391562459478104 -0.004637405554791809 0.002192154459406438
243 -0.003019739150141172 2.4404287689614324e-05 -0.002676775623610393
462 0.0019413117824802015 -0.009334525737516444 -0.009919201640638876
490 0.0020331746581281557 -0.0021017361144854176 0.0004740219739110987
65 -0.002633477036536026 0.003499757489349866 0.001390239172339113
66 0.00030040999032644473 0.0035381984689641047 0.0027704408404714024
260 -0.002480290826155176 -0.0036317650610695976 -0.0013468851867626652
672 0.0006343852220921265 0.003903248757886134 0.00022114503855378003
671 0.0009370689018474213 0.0008506901692027973 -0.0016337102483653786
720 -0.0004057465771994534 0.000892202877585563 -0.0004747115790609167
259 -0.007730876523080716 -0.0025355131123711884 -0.004377639615833815
390 -0.0010679091887909843 -0.0013989881304605628 -0.0013160839079681388
670 0.0013399495127576564 -0.0032123523775321543 -0.004102575539511032
481 -0.003260823611883965 0.0006541042812227549 -0.0007819964299627291
713 0.0010779583935170878 -0.0005984094187216093 0.0027015787742159115
712 0.005265649143695655 -0.0016505943962713736 0.002424197805144923
379 0.0045826946287571835 0.003972119783300118 0.0002550878726290736
792 0.006612950254840027 0.003585487711608026 0.0018028807188933504
791 0.005337506619873374 -0.0011360754998843915 -0.0005124144613228496
348 -0.002656792427312685 -0.002590693140356542 -0.004401688491500739
790 0.003639854763478687 -0.007420610802994438 -0.0035941383831317925
719 0.0016856646286232278 0.0006434144277764388 -0.00047975432274272473
841 0.0014706891665413604 0.002055141655452285 0.0013333871970272247
714 -0.0020682482285326563 0.00019209578843753638 0.0029099747360439064
482 -0.005457218800818692 -0.0018845524166209062 0.0024891483408594206
403 0.002232204261569248 -0.002600087235026252 0.0013997245383106545
404 0.0029640405253615032 -0.0037151786116647522 0.0016064430661693932
405 0.0035138681599119195 -0.004552945314762638 0.001761750427684041
388 0.00407312690878738 0.00012765511530280014 -0.0038401216734342556
78 -0.002128667430382038 0.0014011066648975978 -0.0006887965252434687
842 0.0002471933846982317 -0.0010883976525303289 0.0004098536655000718
1012 -0.0033800632567105335 -0.0037888482906176676 0.004986812793017151
1014 -0.0031735675805114045 -0.0008425301304092071 0.003569007521967496
325 -0.0032255469995956655 -0.005839708092476938 -0.002619169879339663
195 0.0002468735240083735 0.0013596427088969202 0.00012554400977996623
355 0.0005766974448710477 0.0019415887638144303 0.004360834096717362
274 -0.003455959178409901 0.0016843965773838928 0.000901894788525396
718 0.0044693925948867865 0.00031226990512644027 -0.0004864663584125482
275 0.002570387636592908 -0.001972332654610138 -0.00026919015629773863
276 0.007097974172280069 -0.004719628577608237 -0.0011490247544538087
114 0.003298961508154347 -0.0033683571282048397 0.0050263778457327575
392 0.0014239694029281468 0.0004374993271250339 0.0005520405106183355
393 0.0020315264358328217 0.0011619853071363675 0.0018329825270025253
313 0.002340728553493361 0.00020931816723457168 0.003885484953355575
194 -7.941362712951053e-05 0.003219953229886263 0.0009153753517475046
356 0.0010126106113834614 0.003094052074976444 0.005634576142224639
112 0.0007298965864842343 -0.0018584432749458085 -0.0019252217050060572
435 0.000502175681178946 0.00495845347641269 0.006327770106463803
1013 -0.00358655893290967 -0.006735166450826129 0.006404618064066796
583 0.002119645868452708 -0.002552704870097952 0.0034321323512441033
216 -0.0016247297324267643 -0.004992058491041204 0.00032016009418982727
662 -0.0016536036639366424 0.002379832640968207 -0.0028538999199261735
542 -0.0017292744705048398 0.0028011807006131594 -0.002436586289152107
326 -0.004043244032616943 -0.00042236106906150934 -0.0005124317317365295
357 0.0013401116072632381 0.0039598962639468644 0.006591536886803806
639 -0.0008259801978440227 -0.005800639256263286 -0.0020137573828742433
445 0.0007927449867543132 0.005720361482285527 0.007326677036291711
154 -0.002636395311499699 -0.0020090918724764884 -0.000454397294637136
638 -0.00029086873711457316 -0.004970952032845337 -0.0011927575109214072
391 0.0006152936633661801 -0.0005268121760879732 -0.0011529298482681413
661 9.594089453913795e-05 0.007651443812370087 -0.0065555860720362845
83 0.006018477274857855 0.005848646698330209 -0.0010078967148316597
246 -0.003997428878686211 0.0037064222170901566 -0.004632770063846492
915 0.0009573803968756351 -0.0035319322302109894 0.0012578048089166706
203 0.0010146397185354383 0.0011404838023173743 9.562318486796556e-05
159 0.00028801702267671413 -0.0017665799871850803 -0.0016440901393002388
683 -0.0020031756631805455 0.0034407167358390385 0.0014669886352395864
483 -0.0071073676538040646 -0.0037918418967540952 0.004946755158938136
51 0.004364900923355135 0.006125793837633926 0.0023580353733419672
158 0.0008517821323212557 -0.0018124611063807072 0.0017981684538138725
373 0.007417394537366872 0.0009958405636765928 -0.002693376093056384
237 0.0005904977666654283 -0.005285062778415031 0.0007281377120729445
327 -0.004657578751581632 0.0036476847141148883 0.0010703579025341326
202 0.00040021458948608774 0.0025407725095639216 -0.002385893440634725
193 -0.0005137111316691324 0.005696079593173729 0.0019666633955072355
49 -0.00018530930715146077 0.007117572573927563 0.00393468685813715
991 0.0038035207470409433 0.001173636103943928 -0.0006354770902037264
157 0.001602169572989007 -0.0018735301846532007 0.006379912821485199
209 -0.00422800241711017 -0.00047953409858885176 -0.004055900370960514
232 -0.00018919338417910285 0.0018842857503377165 0.002621936446025706
50 0.002412882667257196 0.00655126213496123 0.0030344112605900325
997 0.0019461620087909651 -0.0019604168833818685 -0.0029486514522191355
998 0.0008971777199249591 -0.0014323480451883671 -0.0022635952019381994
210 -0.006316900034493637 -0.0034561824041873163 -0.005778632804822141
977 -0.0008091648865386392 0.0015818457093305638 0.0011350779205761311
374 0.006682430380958201 0.0002108587351891273 -0.0036752723569955714
4 -0.0003692299513533016 0.001546994114098942 0.0012678474676331326
684 0.0014399311043543925 0.003735318528174839 0.0017384837257292441
1044 0.004125188068876757 0.003000061536184221 -0.001511545612402038
1042 0.0025686366661134084 0.001090340346045323 -0.004445562072842098
1043 0.001012085263350067 -0.0008193808440935737 -0.007379578533282169
891 0.0028140388396979644 -0.00012944032198537866 0.0026839727365100662
173 -0.004056174790816252 -0.002684876544200203 -0.0026159953060141687
269 -0.0014614245136656075 -0.0019852463017449814 0.0021009734904924035
236 0.0027913988206626507 -0.004455317931315125 -0.00013987425143676625
235 0.0057208608977203056 -0.00335090387380964 -0.0012952229323399324
424 0.0026508559307742104 -0.005165001813470162 -0.005757828723349274
425 0.004450178597907205 7.529509496197564e-05 0.0008732541885200489
426 0.005802007380941541 0.004012323356686645 0.0058551781684114896
328 0.003731736874370203 0.004776780865032096 0.0012816814462823039
890 0.0010172447012688308 0.00239538529462267 0.004363489718740975
564 0.0011136271548506183 -0.0063919357887410565 -0.0029121094251124808
889 -0.0013743395452142167 0.005756000203504599 0.006598974725340462
975 0.005021681218545294 0.004947726044456548 0.001591358686910119
973 0.0019581356947300345 0.00011145183238913594 -0.0006444988398436823
342 -0.0024791224574054575 -0.0016925671882799316 -0.003347431514321392
130 -0.00035092799102319207 0.0073467027847344945 -0.0012899697766994413
131 -0.00041690211634450936 0.0032024072779435193 -0.00232691171589265
58 0.0019445197603800688 -0.004352689393307336 0.000950718207224232
172 -0.0025964872433786373 0.00020808257322916818 0.0004993508447832798
181 -0.0011044698838596288 -0.00399530285421123 -0.003209368974078526
182 -0.0014829250672739678 -0.002701830515490992 -0.001583021425451062
183 -0.0017672579550729222 -0.0017300464272446854 -0.00036114862430692337
349 0.0013902024231367165 0.0020175746035207827 0.0012429460225443615
350 0.0008711222260161129 -0.0029299874949968814 -0.002083713308689814
351 0.0004811379480495338 -0.006647084474207893 -0.004583028143909258
376 -0.0029731787820988344 -8.266262332701333e-05 -0.0039345688320130455
132 -0.0004664683910177349 8.880344589341999e-05 -0.003105964848130663
974 -0.0011054098290852266 -0.00472482237967828 -0.0028803563665974856
976 -0.0011004734123397416 0.0025839197923699223 0.0018377903470793752
978 -0.001391781938140845 0.003585993875409284 0.002540502773582621
278 0.002324926721725609 -0.00045473696610729146 -0.0023822954054998667
1001 0.0014783754973401353 0.0003211349771324645 -0.003437918384200988
277 0.00010390721096472776 -0.003913516134854802 0.0023976001977509117
1000 0.0010009125454317547 0.0010413854307217097 -0.0048043657292464225
563 0.0007752497086689882 -0.0028978439275398294 -0.004736488735915935
1002 0.000523449593523367 0.0017616358843109507 -0.006170813074291854
341 -0.001994881211619938 -0.0015327184586296548 -0.0031096153723146015
387 -0.0024537748704712946 0.0015788325311517997 -0.0013228834362331156
386 -0.0016700268523036207 -0.00011101788310335833 -0.002959686972235126
385 -0.0006268358860303127 -0.002360256982457682 -0.005138319163629338
340 -0.0013503423019313476 -0.0013199552402533145 -0.002793075304302107
233 0.00046616118398882443 -2.7447574977307895e-05 0.0020580698543208966
292 -0.0010380722249740371 -0.0036839048977931263 -0.0026920016383755753
174 -0.0051528361495080215 -0.0048583529720351345 -0.004956550823204207
293 0.0017065591626752325 -0.002310302464210656 4.099794518767918e-05
377 -0.0023772207827339235 0.0019280873972613106 -0.0006341181606702244
294 0.0037685971597597985 -0.0012783167397593977 0.002094296982968643
17 -0.00509735233800929 -0.0023239550533815365 -0.00284405656865585
16 -0.0035730526376216046 -0.0029101828250949085 -0.0008402310518969558
437 -0.0002955918466195804 0.0004964354045290142 -0.0027956822860867063
438 0.0004419381410682296 0.0012229409262562618 -0.002907558766642527
436 -0.0012772652960916881 -0.00047056416630932864 -0.002646771499521482
106 0.002627315542544831 0.001213726530600326 0.002348665234160689
375 0.006130252764747273 -0.00037889709309658394 -0.00441296974490313
280 0.0016237533180428634 0.0015787994253227036 0.000168705041506632
18 -0.0062425567233005555 -0.0018835228898280458 -0.004349528077026003
562 0.000324859676586227 0.0017528919983459844 -0.007164789633614577
234 0.000958528219943565 -0.0014637303395159307 0.0016344376162673467
1004 -0.00027967350901375804 -0.0012156507675221096 0.0015020827146212945
894 0.003444424593823149 -0.0007710517133728465 0.0011823861954368658
893 0.00032413612026154523 -0.0029132956928912537 0.0007219095293398766
447 0.001722251829305239 0.000764168355522702 0.010309045215347173
265 0.001290071005536492 0.0018033907247107922 -0.0022499665026368327
107 0.0026437010482143627 -0.0009303816443390781 -0.0011233908481336338
756 0.0069584187022709975 0.0007717830194434436 -0.0016800584479164037
266 0.00012594695633149865 0.0012292420604768104 -0.0022581998485604235
267 -0.0007486579299867983 0.0007978849146854346 -0.0022643855506601623
925 -0.0018926487407929776 0.005236458861486004 0.00041478199722028196
378 -0.0019294783117824814 0.003438761276365667 0.0018455061424100653
992 0.0026972141791724385 -0.0011714180167740442 0.0021522529711231458
40 -0.01008603295678527 0.0050624774238815645 0.0036400398494949465
41 -0.0033133684124972435 0.004200235670105918 0.0004466636281377854
270 -0.0012271254653876023 -0.001804069733673172 0.001972950108076146
434 0.000709950529718883 0.0030323566385001516 0.005270077636875706
934 -0.00430385894565121 -0.0034241679906978897 0.0032046826389541486
993 0.004909827314909437 0.003518690224661893 -0.003423207151530599
42 0.0017749256639581152 0.00355243456028876 -0.0019525157797260087
834 0.0028690081242666284 0.002412464333888982 -0.0031722134743926043
5 -0.0005896913955933689 0.0012701660629174075 0.0002497969654323131
6 -0.0007553237923373673 0.0010621855075816696 -0.000515063054727655
755 0.006314283515280548 0.00017008128706902685 -0.001967617850131117
245 -0.0027491444556133485 0.002912740836437075 -0.00269286788648379
347 1.0338554480401733e-05 -0.0029553797084529944 -0.00018206041891520754
156 0.0022523333260062984 -0.0005976889063636143 -0.0017344998891230684
359 0.0037929903762664477 -0.0008608818475060939 -0.0022507387895548863
346 0.003560365963262907 -0.0034407879321941663 0.0054343848980957935
598 2.343054951164155e-05 0.0003925726014343625 0.002367915405688888
464 0.00268856466267172 0.0005502775286007988 0.002629667472104891
465 0.007216138641133781 -0.0015117958899057184 0.0032797171968951483
358 0.003342042930331328 -0.0032958329377703295 -0.0016660684071482922
637 0.0004213798795866801 -0.0038666146741040686 -9.998326476118769e-05
599 0.001162216186609697 -0.000915499689685829 0.0002828110441443101
600 0.0020177843568190794 -0.0018982527032092467 -0.0012837251547563864
446 0.001323497874232407 0.0028903513172077564 0.00902962364205568
155 0.00015509230502207876 -0.0012031739756230072 -0.001185342046401439
91 -0.00800995791022855 0.004438267813459138 0.004472003786613082
189 -0.005745586728265681 0.0007843434940820222 0.003616061073029009
843 -0.0006720174072449486 -0.003450134652099084 -0.00028399587734208027
788 0.0006280693084496981 -0.0005898460862451952 0.0018235188539828717
463 -0.003337765438306323 0.003294956063172976 0.0017644327476649534
962 -0.0026619291431862306 -0.0024795654838454173 0.00014713415087604662
961 -0.00035478573061440436 -0.0013879210594675338 -0.002611143976979472
164 -0.002500872663832319 0.00012114920241419839 0.0003088031677117427
459 0.004229694436673002 0.001860736565842546 0.003238335344265841
963 0.0019523576819574263 -0.0002962766350896467 -0.005369422104834983
789 0.0056655960238111815 0.00204743167671276 0.003948945875736628
165 -0.00030223003535540796 -0.0021492720687734065 0.00019212493992025947
108 0.0026560114573440027 -0.0025412473316149724 -0.003731942073597595
433 0.0009865047792880376 0.0004686668110279765 0.003862258792307279
281 0.0010567342575152358 0.001119233473866349 -0.0006766878182954584
969 -0.0019248675940395682 -0.0010378552770858097 0.00024929549253903773
1003 0.0005350092831736752 -0.0007742646466919725 0.002821134990336279
229 0.0062500294560054685 0.0011272869862190668 -0.0006870758972312991
967 0.000467444666522151 -0.0016533844084793148 0.000904605588058825
282 0.0006307335737292207 0.0007739621713760903 -0.0013118303759519661
367 -0.002952334094581502 -0.005287374474316796 -0.00016143972138294902
996 -0.0026425237515856083 0.0013838235064678268 -0.0005282751841911822
369 9.850502316438147e-05 0.0006074760178043678 -0.003473640941840057
230 0.0005372852134078221 -0.0003132646433975958 -0.0014041853722158732
217 0.002604225766334657 0.00021789038521744268 0.0004426267556332359
352 -0.005764263676573737 0.0007773825316587882 0.0033543197375271987
368 -0.0012102902527837095 -0.001921386429130819 -0.0020527225836387674
353 -0.0035729832054789213 -0.0012427925067494158 0.0026316118316158437
764 0.0029337744843854845 -0.002115739856865239 0.001676687428437211
92 -0.0004294863199440738 0.00417152810438921 -0.0012799360156714808
84 0.003343455912397918 0.004952153912004166 -0.0005348115019464249
892 -0.003829056835040863 -0.0057646835307982 0.00010900195303101203
844 -0.0018022110728720781 -0.0016598593778017583 0.004422894090735488
215 0.003972593041824987 -0.0009582705247865614 -0.001855678526151193
781 -0.0059264282161431165 0.0004276258686080718 0.004514067294811281
27 -0.0010910355977694006 0.0036341407695876407 -0.0011914699066439844
675 -0.00031036826088734373 -0.001632139865993582 0.001045266605549156
133 -0.0026826483022164586 -0.00491615930152038 0.0007608610825602683
167 -0.0005149156927350305 0.0004402581207946535 -0.003185703241790318
835 -0.0029645820248402712 0.0022793031705639574 0.006627542852759792
985 0.0024919155548143285 -0.0016248322845815318 0.0006856952606748748
876 0.0016426575845423 0.007070532986041874 0.0006440984273128616
177 -4.68582758062319e-05 0.0011752215881754898 -0.0037929146682638987
553 0.0034892751943913208 0.0022641541660473503 0.00021751352072975198
954 0.0007920070024094649 0.00170296582510744 -0.00462154328880749
162 0.006063993035646838 0.0031193156442152607 0.003921529362214371
935 0.0006491053772517514 -0.00027502807369102623 -0.00012699763893216293
754 0.005456921209346849 -0.0006308008804820546 -0.002350367616259611
585 -0.00216322584396545 0.002279947438466519 0.0018931661664661965
584 -0.0003258945235102029 0.00020676289230073694 0.0025533752416564207
987 0.0031663813613553894 -0.0034020120572090373 -0.003157751760444463
214 0.011422789301416797 0.004410816310159138 -0.004751781789180735
936 0.004370261040627535 0.0020909166561641386 -0.002630084704850614
590 0.0011385345175860824 -0.0011295445327235139 0.0017644952440531254
1008 0.0021080916096336026 0.006856793053062887 0.004062589208985903
171 -0.0010831145387392425 -0.0014921092791594448 0.003357208264226321
508 0.004446643530151413 0.001926040757246181 0.0022339610127193434
509 -7.586260815242675e-05 0.003557672343808156 -0.00027410529181436517
510 -0.003473615596475509 0.0047835150357900934 -0.002158412249181575
604 -0.0009589339882189925 -0.006013985157032608 -0.0033887012155890016
605 -0.0006121218768113775 -0.004391802012541251 -0.003512273440116106
606 -0.0003515623879161791 -0.0031730579228162505 -0.003605113091919912
745 0.0017391274551334353 0.0014852431660545406 0.0014713672345791438
746 0.0025754462015043743 0.003089688345881958 0.0002264276462543081
747 0.0032037713895246194 0.004295105925791258 -0.0007088938496494808
868 -0.001631605921753389 0.0004354306525613537 0.004752747968018933
869 -0.0028606128013228364 -0.0005034463849944022 0.00613053909032012
870 -0.0037839640738305284 -0.0012088234839892163 0.007165671771165879
68 -0.0018031676077119169 -0.0010662571936273528 0.003407118941981158
846 0.0017635358013875265 0.0010863286739119838 0.004511987024055574
505 -0.0008362514194369676 0.005523198075476507 0.0027700820158429807
506 -0.00042712441194846446 0.006565454048080581 0.0027064382588062913
507 -0.0001197478225561307 0.007348499606718838 0.002658622786798856
641 0.00044076708470883245 -0.0015336514621005686 -0.006168337292225215
444 -0.001003416023833229 -0.0004890957860214427 -0.004124138219142974
443 1.9220434448111542e-05 -0.002102696395437567 -0.0051912082490287465
640 0.0027554994948534163 8.063790032568265e-05 -0.0030127749773906404
442 0.001380378728098301 -0.00425044482975117 -0.006611508893820532
715 0.002943805298619089 0.003569420036630252 -0.0006740107185699501
885 0.0018898989657625477 0.0017392520026827166 0.0013296293345241687
905 -2.8576092753701657e-05 -0.0019611550885815458 -0.0016502557615297418
904 0.0014750738256307427 -0.004467606500281126 6.175093622471555e-05
884 0.0023505727759472023 0.001377068813257012 0.002332715470476957
146 -0.0008978149627899172 0.0020410074267211095 -0.0010260723088085513
716 0.0032983277743150433 -0.0015325771662220433 0.002141155046862526
717 0.0035646800498866154 -0.005365701038754584 0.004256185430372513
883 0.0029637427566597072 0.0008949926579280708 0.003667851727492767
906 -0.0011582663236438331 -7.806139810334579e-05 -0.0029364841701673508
531 0.0031445200822985435 0.0007264592045920722 -0.0007455233319378577
530 0.0034399737772755606 0.0012311018719692543 -0.00047530309513516645
580 0.0016182752340980725 -0.005889974920012949 0.0046075869864843095
529 0.003833231072232008 0.0019027956556865058 -0.00011563225271844617
523 0.0010947576600108858 -0.0036327345594172108 -0.00022369287854309965
502 -0.002332103283310336 -6.795217677395488e-05 0.0017505179459069448
774 -0.002306918351098543 -0.003291444016965721 -0.0025753749512028258
19 -0.0006130768458900383 -0.00016777536312907921 -0.003183621711870066
289 0.0030947741687268352 0.002717004523794977 0.004597227385234374
69 -0.0008619874479097376 -0.002100728503268953 0.0022054717697914546
945 0.0028064986050718114 0.0026797659073495156 -0.0004170981138651304
944 0.0013216713066468864 0.0015122770274864628 -2.525513375426001e-05
943 -0.0006546761778599283 -4.168397077550885e-05 0.0004962990489343642
67 -0.0030559052447865524 0.0003106536247374351 0.005006545601594067
642 -0.0012982883688867995 -0.002746464963611718 -0.008539107161227546
201 0.0036736549186373213 0.0014027755144910877 -0.00022438384483444305
825 -0.0039076475749664705 0.0020617681890243355 0.00165122927620276
271 0.001601921408942524 -0.004870766925664737 0.0012619316218406102
450 -0.0047815889385420815 0.00037019317792307726 0.0004454132011872192
449 -0.004958847773701622 0.000330207103571414 0.0015458603528000537
200 0.003336251118674746 0.001130830935508121 -8.131482780917539e-05
824 -0.0033547310002379495 -0.001301210838048197 -0.0003660403765139562
20 -0.00042272859765076697 0.0006466119359751801 -8.335421034613819e-05
223 0.00199245077315588 -0.002748197946318973 -0.003604195736270962
830 -0.0033173818994025445 -0.000313690513662503 0.0023142583470074298
895 0.001695847834155355 0.0008929201759487152 0.0023931064576609025
1046 0.0005491466148283877 -0.0010240324517237411 -0.00038505401255412074
448 -0.0051947843390825164 0.0002769844981249491 0.0030105868985941466
581 -0.00018748109508122987 -0.0019277505591466858 0.0010827572692478963
1045 -0.0008747922459023119 0.0018730586722284794 -0.0011253564469111278
224 -0.00025721434399813875 0.0019198067391725492 -0.0016831773037530805
871 2.1624811239767672e-05 0.00408723038011528 0.0036649844934864787
521 -0.0006195940873156161 0.001079142528779685 -0.0010891198256112104
773 -0.0006656946699142312 -0.0016519808775231812 -0.0007519051267063487
888 -0.005798300394090315 -0.00436710141443949 0.007053687817357535
887 -0.0016744599274256269 -0.0052829790087544235 0.0018849657942695067
823 -0.0026187832689657637 -0.005777431842103265 -0.003051083820925151
290 -0.00035855294385355574 0.005465611741594508 -0.00028199154886144505
520 -0.0013030971425796363 -0.002368728318715071 0.003364624385984006
588 0.0022628498671689915 0.007753404368946254 0.006553092215778556
291 -0.0029530331186947856 0.007530636774707524 -0.00394774239739969
199 0.00288715703747996 0.0007688649444676987 0.00010911411447164787
1035 -0.0032150611662938393 -0.00015463251330744855 -0.002510712744472145
587 0.0008087863639734105 0.005908181972191187 0.000360330265908568
845 0.00023384757983826743 -9.177276317841158e-05 0.004473766585104389
1033 -0.0034807535051776905 0.0007631830973272947 -0.003042343265311223
264 -0.0010605409595246212 -0.0032412771644956618 -0.0013411978416078337
225 -0.0019473848248729385 0.005426872597038568 -0.0002399186502315255
147 -0.0022190371904210505 0.002588839803752878 -0.0013132103891667602
1034 -0.003746445844061543 0.0016809987079620388 -0.003573973786150301
522 -0.0001060791295620587 0.003669523418748167 -0.004435212067699323
263 -0.0009045619281552197 -0.0025276162270866827 -0.001411125635788057
345 0.0035425513386685933 -0.0021908327676006577 -0.002827673867350791
1020 0.0012334361434873484 -0.005233991972788751 -0.001948838934107884
21 -0.0002797202059541201 0.0012584600561463656 0.002245872737227353
240 -0.0020777550845721467 0.004920630867876863 0.0013506501109412433
344 -0.002288735820104196 -0.0014395919413625277 -0.004838907987842168
879 -0.0008873488931342399 -0.00283356766899357 0.00275539835752611
361 -0.00035000986598443095 0.0026389429531813256 -0.0024076059559753385
239 0.0009373423670588819 0.0010139228947099947 0.0030537711375318785
589 -0.0013711026244319568 -0.0006200211114954586 0.0051625752533179465
343 -0.01005034534863496 -0.00043966897471886795 -0.0075159179667157365
708 -0.007574762901464012 0.00023600014215221848 -0.0037548721161473906
649 -0.001393284151163172 0.000296120284345641 -0.0018559581929832065
795 -0.002857309958111511 0.0022491107378097086 0.0009898645639935348
872 -0.003826423668508944 0.0016497617034031099 0.00446146083413824
430 -0.000783115246673763 -0.004080760557603344 -0.0005977315491046871
8 -0.0020128491104354092 0.0005073445625993794 0.0012476857551753796
771 -0.003720370944531292 -0.005555703450683207 0.004434067114177524
238 0.004950523071909166 -0.0041860168448552455 0.005320673800409634
582 -0.0015441434800555584 0.0010490634574262035 -0.0015654427196108937
7 -0.0012680144964358551 0.0016788647578341578 -0.0004960701069373751
772 0.0015188208607891727 0.0005301913219076843 0.001675185218777301
874 -0.00028545776264490624 0.0018814667194513865 -0.0011429310224629655
1047 -0.0022987311066330093 0.004770149796180711 -0.0018656588812681377
886 0.0038144893540467597 -0.006502038209484758 -0.004994750640955669
1018 0.0016295896721236322 -0.0019087123077898502 -0.0024751877612553532
878 -0.0008897352001902214 -0.003123319712417964 -0.0002596956134183906
877 -0.0008929114429440763 -0.0035089879465351344 -0.0042728716853756435
1019 0.002025743200759912 0.0014165673572090608 -0.0030015365884028195
926 0.0009466991243862793 0.0045940325357721815 0.0006917545736287263
299 -0.0019330834503653049 -0.005252408965688621 -0.0021039624538584387
650 -0.0010524668323542653 0.0019307119257510562 -0.0022982195187659163
651 -0.000796411223353028 0.003158778503092653 -0.002630489878461108
128 -0.0036347952441459813 0.0009669945945739492 -0.000261202926339783
568 0.0008941635740935351 4.0241763211457896e-05 0.004496107252560187
758 -0.0014174350405040037 0.0037463117439419844 -0.0007151085700150682
757 -0.005291318681665751 0.004510410052885537 0.0012889424473918054
453 -0.003701916533815171 0.002824404130545275 0.0012095369893702053
603 -0.004123290079116872 0.0037670448920174267 -0.0006918741505218754
602 -0.0011185756923421555 0.0023745847600860365 -0.0010977494309601758
539 0.0005841393268444071 0.003001403882497943 -0.0016988508014711915
540 0.0013276209557170288 0.0038464604172342956 0.0005923874115740906
709 -0.006749448261974081 -0.00224558544873206 0.001926095684939931
710 -0.005220195209575521 -0.0020778796147091867 -0.0001502195345553526
527 -0.00022398529524933307 0.0006057303374419688 -0.00017868719950593062
547 -8.337536050001049e-05 0.006224245667583601 -0.006329033961522032
548 0.0009518285972335695 -9.567073514913944e-05 -0.004090707530115411
549 0.0017295759862580723 -0.00484381572083857 -0.002409055789117074
574 0.002266895057675318 -0.0011657310573281435 0.0037971655284625688
575 0.0009346993087280946 -0.001261952632585712 -0.004071628966464878
607 0.001853256055030326 0.00311598491687387 0.0022055818910481882
608 -0.0015675321906097241 0.0005682038948902864 0.0011511891623301271
655 -0.0031723483802269747 -0.0017849352553188892 0.00673751600359522
656 -0.0012181926365118572 0.0016068161276774537 2.5926342749261816e-05
657 0.0002499620358766973 0.004155034536850663 -0.00501648225309409
689 -0.00041548191390050257 -0.001069498328853356 0.002022406619734665
690 0.0007470199341780243 -0.002011270486255678 0.0010767139756157314
711 -0.004071269377351411 -0.0019518824394075874 -0.0017101524624488834
848 -0.0006923766863106138 -0.0008856976319215531 0.0039072888159623976
849 -0.0019836398786203854 -0.0008123866349365118 0.004095769054252914
688 -0.0019628050306169475 0.0001840272739120518 0.003281150502140161
528 0.0010726644041854708 0.0003255065037845845 0.004024615584483693
840 -0.0022141415977263 -0.00035694974342865746 -0.000608640410844124
839 -0.0024565446339043034 -0.0019509744936758392 -0.0010528938668125098
452 -0.0027367356507645253 0.0018234926468830024 0.0001549371316393011
838 -0.0027791899888862655 -0.004072666901092143 -0.0016442078877211698
759 0.0014930087080831057 0.003172245676768165 -0.0022207494967291944
451 -0.001452052366496595 0.000491250914091382 -0.0012487653583396056
601 0.0028807848570381934 0.0005211806086821147 -0.001637981005614431
609 -0.00413756595697696 -0.0013459406781194685 0.0003590252745854488
696 -0.0016986956755498054 0.000971085537967628 0.0012147466283138173
569 0.001924233870375082 0.00027577335829241797 0.0012509161381551483
695 -0.000992993859533512 0.00014978128544175797 -0.0003991228816438425
694 -5.368461436056971e-05 -0.0009433980999427184 -0.002547229230247812
815 0.002305450534749552 2.412451363759593e-05 -0.000831839021082718
847 0.0010263314521138087 -0.0009832766598878051 0.0036564162429568755
538 -0.0004054559267976295 0.001876609532027781 -0.00474855421382186
300 -0.0016736455913142888 -0.004948067987999107 -0.0026687140937167782
557 -0.0024096629513393475 -0.00014322049828797975 -0.0016849261015509445
127 -0.004980878916601936 -0.0016781599787427587 -0.0017927187923508056
556 -0.0011688385642790757 -0.002116556819622239 -0.00532118009791128
630 -0.0037906112242221896 0.002115459340189545 -0.005552768615684632
129 -0.0026234843291904333 0.002954295790241114 0.0008894229548126563
741 -0.0016958236642281546 -0.0044948646301632 0.0008667933197813913
629 -0.001015308256567989 0.0010616580860460308 -0.0010198103033908943
739 -0.002955983600593867 0.006851159665341278 0.0033086645200286475
740 -0.002236426202743234 0.00037252510283593396 0.001914344294451804
477 0.0031066417270290154 -0.004125654342555016 -0.006273761278931181
922 0.00213028713217628 -0.0025288532275555184 0.0011996487513182706
526 -0.0019498630282913324 0.0009787162525952764 -0.005773403091765214
476 0.002442408104756505 -0.002093838929657742 -0.0018655879069856822
570 0.0026981243462177633 0.0004527279397915608 -0.0011871917315634363
475 0.0015582942082140094 0.0006105653364285113 0.004001816581169936
211 -0.0023955211124058735 -0.006139054816539528 -0.0007653269369719711
802 0.0035023348908904293 0.0006910066929856455 -0.005245108161362959
212 0.0007682087756726113 -0.004183890209459286 -0.00177003156716229
928 0.0007443755131972885 -0.0013741947968372828 0.0024896484804146357
499 0.0002580768386316716 0.0012367813306067537 -0.002412007228146944
213 0.0031451149318458584 -0.0027149775793347164 -0.002524864851013068
558 -0.003341892701877486 0.001339344517156007 0.0010469868035067808
45 0.002684740849682796 -0.0009123460031614502 0.005463456797964233
334 -0.0016716665435316952 0.0007269374440186926 0.0005287925527897278
735 0.001218658902483707 0.004558043397876223 -0.004069781901217615
554 0.0017693059789846022 1.623352003706581e-05 -0.0015760624897949893
784 0.004240205822298759 0.00037718003768277917 -0.0006985828789418895
669 -0.0002866946850172934 0.0004999683494626005 0.0005901392634338591
785 0.001645974338597193 -0.0013706222279116775 -0.00046616505969492575
298 -0.002278402640459139 -0.005657495487418828 -0.0013522619133382635
383 0.0006045488255080481 0.0031315282815180196 -0.0012452269447723492
384 0.0014221823594700725 -0.0007971758153485584 -0.0008814755804129982
205 0.00022277916711611803 0.00502898347206584 -0.0008944793402806321
929 -0.0015652958925799604 -0.003410089386757079 -0.0006310907336619916
814 0.0026189489769325933 -0.009448778775933944 0.00019150714134220817
668 -0.001598027542897886 -0.0015758662847383162 -0.0012052979867283476
628 0.002678699150681342 -0.00034098143978024387 0.005013686499489268
816 0.002069919562278263 0.007141104452620906 -0.0016006776638915747
916 -0.003993280640476878 0.006768296383901038 -0.00232456867954161
63 -0.0023343699926965267 0.0019338886517752908 -0.005905316701919954
206 0.0016326686846232935 0.0030655982690504903 -0.001864465643429317
500 -0.001616549661012015 0.001996122495709373 3.4715867454636925e-05
875 0.00081550539444382 0.004844448569859007 -0.00012252859285422676
555 0.0004770953411757854 -0.0016726263419330006 -0.0029235738171827196
576 -6.617762733161629e-05 -0.0013342437771136338 -0.009983444051290254
534 -0.010197180750611524 -0.0054130910112995196 0.0028107193012031936
949 -0.0008330528035630968 0.0038977833228823386 -0.0034224466327324463
726 -2.137406309463889e-05 0.002765677303693491 -0.0009744440805980125
803 0.0021926723567120424 -0.0018295377085549049 -0.003215546958537489
498 -0.002138738884405243 -0.004314385987191146 -0.0004611174235255555
497 -0.0027155987341617558 -0.003677913478503402 -0.001214732916825401
168 1.0690136647185152e-05 0.004700340286121975 -0.00483060985547937
808 -0.0044423644908061135 0.0031446195512885543 -0.00027527864695543443
501 -0.003024954115614445 0.002566614526893619 0.0018729357516176282
145 0.0008607695061400364 0.0013118269075949813 -0.0006438833340880264
896 0.0005091665849197723 0.0002630155672346706 0.0010443627875054587
503 -0.004745829076571864 0.0010128478856546114 0.0002794446594936353
918 -0.0017533450933260636 -0.0036600132728775363 0.003128294861144638
504 -0.006559258130340445 0.0018248515689207544 -0.0008257707901038842
336 -0.0021464946481734074 -0.0006335967199177427 -0.005079485698090878
917 -0.002714266646182397 0.0008136813036492695 0.0007890426859225532
335 -0.0019427956800345642 -4.9934121595734675e-05 -0.002673561361320812
586 -0.0011266136316369427 0.0034521383326036412 -0.007882412519570961
897 -0.00038238549648644186 -0.00021023094723425804 3.105341973282821e-05
793 0.006242081226891453 -1.939211346544344e-05 0.0005629737438125042
898 -0.00299266296857819 -0.0018328061864221422 -0.002103102816454933
471 -0.003659654047745344 -0.000798370193174062 0.0018028065141068809
402 0.00218003980640082 -0.00014698763242436625 0.00011377126572580229
565 -0.0014128789741809614 0.0005285595585083932 0.0063415992812211695
865 -0.0013721113018221659 -0.00042510322360730696 0.0006861014151027509
552 -0.001845939584653292 -0.0013898650798149354 0.00787491765455137
646 -0.0005002177345416396 0.0004666913540582957 0.0015815032200314923
647 -0.002302799168465851 -0.0022043288536918028 0.0017344796143051895
648 -0.003657076258758262 -0.004211062866917038 0.001849410580652374
400 -0.003251895864843684 0.0038822877535626514 -0.0014640378995664513
362 0.00015636301895620238 0.0017521353438072294 -0.0015974475244426261
550 -0.003055320436277277 0.001703732948956334 0.0011877474655088644
363 0.0005368003097849774 0.001085877938582665 -0.0009887765469859067
899 -0.00019693750934590232 -0.002325502511817259 0.00033384444921053365
900 0.0019034873973630272 -0.0026956646212212515 0.002164719765038415
567 -0.0013983807481732927 -0.007191429170755388 -0.004080995342572228
866 -0.0028691030811368043 -0.0007688406381560688 0.002765560371145474
597 -0.0008399830208517022 -0.0021493804738500176 -0.0014437101677649937
595 0.0021771856311989697 -0.0019286156743820273 -0.000913666815195109
596 0.00045436778761052526 -0.002054673439002237 -0.0012163241244118766
622 -0.0042894525874381546 0.0019725540011016505 0.0019405481054033478
623 -0.0024655847012920984 0.0024728883970664617 0.004246191306670233
634 3.90277760572706e-05 0.004301192485413148 -0.000958878266050461
635 0.0022049961038700413 0.005149077706956738 -0.0012089337844936971
765 0.006069537398455943 -0.0008558384459820456 0.002280841979530159
663 -0.0029680342185837037 -0.0015807219858577446 -7.282792123046444e-05
697 0.0028882025476899133 -0.001402404410047507 -0.0005689351008235343
698 -0.0004940557601073657 -0.001893896390669671 -0.000615412145661574
699 -0.0030351420342122192 -0.00226315367740983 -0.0006503302890886006
742 -0.003856435325086132 -0.005541546993641491 -0.003886094879502501
743 -0.0005638642225313302 -0.0032290860535839567 -0.00040764886389160467
744 0.0019098401707517078 -0.0014917371525147412 0.0022057031101744996
1027 0.0004871117914667679 -0.002712213057680893 -0.000732465316207651
1028 -0.0025053268917940626 -0.003946949283443085 -0.006119499220862745
1029 0.003479550474727604 -0.0014774768319186912 0.0046545685884474535
396 -0.0029097804954532186 -0.003801782000602673 0.006415486939156039
395 -0.00063578985124163 -0.0038945944582980544 0.0036755896464352104
394 0.0023909565550555606 -0.004018130486691215 2.8708202364256113e-05
551 -0.0023647581405780056 -6.272643714220203e-05 0.005006153876753013
680 -0.0027406487714513737 0.0006819566461655637 -0.0020820749671020995
679 -0.002164198132196981 0.0057659656106468825 0.0014528818285997661
97 0.004021139599027252 0.002690453906495599 0.002234543598605739
867 -0.003993791060790721 -0.0010270901112943338 0.004327855184224319
1024 0.0016462725275825899 -0.0016972083463172758 -0.0002916472672256869
566 -0.001404600417246663 -0.0038795912175636294 0.0003902475123513673
122 0.002587980056381732 0.0033095973391246898 -0.0019232709689391294
937 -0.002302939408894214 0.00038206290679166635 0.005362602105653211
938 -0.001571474098766136 0.002896194813028699 -0.0021988852835972007
636 0.0038322852956098967 0.0057860927727528015 -0.0013968001707526751
931 0.0033737647537768973 -0.005960944754704733 -0.0044023027847103855
850 0.00583084390253881 0.007819163584126864 0.0018865612399526959
851 0.00022069944059909593 0.002998827089741967 0.00033868294312212785
852 -0.003994194807754305 -0.0006226854583121378 -0.0008242360110551052
139 -7.964271206486301e-05 -0.00174274522742957 -0.004153717910619841
140 -0.0003528245881514661 0.0037106083830351945 7.934106678866908e-05
681 -0.003173735388086004 -0.003137652686240209 -0.004737883416859932
559 -0.003818349786240475 0.00152908243535336 0.002104924697918651
560 -0.0024854821331886734 0.0017029194094325315 0.001633433111701274
902 0.0003665428690818814 -0.003328049835182937 0.001590795134674388
561 -0.001484100396447804 0.001833522902295905 0.0012792020953028946
939 -0.0010219251612218585 0.004785058849078219 -0.007879820939027563
901 0.002109545439657626 -0.0029884537026537115 0.0032638173796219307
612 -0.0008620315510446505 0.001147502114789836 0.006728244123513099
98 -0.0005015961199844587 -0.0015414246620072227 -0.00016203752153729528
919 0.001754062121143045 0.0012623715664659932 0.004878969792758204
812 -0.0009042816785644619 0.0003223917512486693 0.0015686687386260222
813 -0.0005541902129262471 -0.0007199889411995169 0.001690028575455529
611 -0.002561762434770477 -0.0004657097879402987 0.0019125042893933185
610 -0.004824152720801435 -0.0026129408425681613 -0.004497382784543141
932 0.002541434056231207 -0.003725101917094274 -0.001208904865269182
121 0.00175243599261536 0.002279269267454436 -0.004279917455988599
624 -0.0010953151270901571 0.002848788978969902 0.005978418049440235
811 -0.0013702634046516273 0.0017098301837207574 0.0014071353343758576
418 -0.005248710973993683 0.0024868914618921597 -0.0031008343790461376
401 -0.00015023441370666502 0.0015815520863694703 -0.0005631012608752865
858 0.001760003768859431 -0.0009063122818780342 -0.0006483929240553073
857 -0.0003708029622487062 -0.00036700978338006227 0.0020817004625422355
99 -0.003899521591995186 -0.0047208295345771934 -0.0019625858046577395
1025 0.0017526704006813247 -0.0008045484227331214 -0.0024839432937836833
873 -0.006717457493878593 -0.00018150534786700993 0.005059852474485049
469 0.001938355446355 -0.002167918224334336 0.0002617537942514877
920 -0.001489507985794222 -0.0007178966852521742 0.004709119244888655
487 -0.0014037022552873823 -0.001933256698537821 -0.0010807567504823343
1026 0.0015398746544838552 -0.00258986826990143 0.0019006487593323093
732 -0.007185789284197585 -0.001917654493968124 0.004587998571650044
921 -0.003926397994707485 -0.0022056696509910943 0.004581510748859391
309 0.004749991279693786 0.0015082284008262475 -0.0016572952029590344
856 -0.003206967496307942 0.00035081722412804334 0.005715532627935686
1007 0.006079340460217242 0.0037625725842792787 0.006796285447396614
1006 0.0040937160349254235 0.005309682818671084 0.005429437328191261
381 -0.0019918328099140362 0.0040769534937596975 -0.0008671316920240837
141 -0.000558065776873671 0.007807705868299958 0.00325963277903649
380 0.0008286077709323124 0.0040319803372889035 -0.0003857049080775869
123 0.003215723226367246 0.004083681481282146 -0.00015272552379871863
828 0.0026258269671622287 -0.0015722377706037264 0.0027379743940547504
1040 0.0019602504887800995 0.0013022306721869677 0.008492349981636902
933 0.001916105084114085 -0.0020453160968895443 0.0011902908443369592
454 -0.003707814566504909 -0.0032576268218687987 -0.0031668597572049122
117 -0.002701469528921285 0.00233048952458573 0.008101874080275828
470 -0.001258134958136853 -0.0013858996970867211 0.0011417023254258682
1032 0.0012102637251303135 0.0016117855630446297 -0.0033508589654432435
805 -0.0013669954619600088 -0.002664927780096295 0.0010623627141010767
734 0.0023979119684399814 0.0011695938465789452 -0.0012601664947322995
853 0.0013631114581336434 0.002483223535399257 -0.0010950081711281513
806 0.0013486635221654228 0.0006375900062790194 0.001966820934348905
382 -0.0004837447287715687 0.008360745489101897 -0.0017293903856655096
855 0.0007699895638740795 0.007971759647804368 -0.0034300424773345715
619 -0.003119320723099224 3.470400961112178e-05 -0.0007292496495313922
643 0.007411900094184068 -0.0036217459088233204 0.0038150856042982262
854 0.0010244359975627383 0.0056172041112627705 -0.00242832401523564
1031 -0.0011770621400850664 -0.007996571938149658 0.002269141641652906
807 0.0033889345901090204 0.0031187673301986555 0.0026463392206000393
545 0.0014945584372478991 -0.004389442777755915 0.0006883379676132436
546 0.002467586919450194 -0.006565409585305525 0.0009915228421640788
1030 1.660079252261861e-05 -0.003192393187552516 -0.0005408586618951701
544 0.00019942977467959358 -0.0014931688938955917 0.0002847902521350357
333 0.004598689387879452 0.0030509969176855034 0.0006604150493703179
733 0.003967531433930619 -0.00334052915169057 0.002479511747261993
321 -0.003382443227663355 0.0012490830979889232 0.0006173076124267738
320 0.0020503422181186205 0.002787470132501984 0.00017507669691771115
984 -0.00018758447835718044 -6.50593829502155e-05 -0.001733270589526723
1037 0.0006097945747557381 -0.0043152023238813 -0.00038126154734274766
315 -0.0016379657757676792 -0.005716318730178232 0.002669515838919779
533 -0.005000335956140075 -0.004046675849160913 0.0018152222365828018
644 0.0013672910009868765 -0.004506494519034786 0.002030684934896394
517 0.0016697072872193612 -0.00037015858600413307 -0.0052858777314146385
61 0.004504853167296154 0.0066879531928795075 0.004131449615944563
532 0.0019168126899152772 -0.002227938295406888 0.0004901872499662098
645 -0.0031740159605904918 -0.005171205000862489 0.0006900670293782628
951 8.717154500195853e-05 0.003989900065494542 -0.0029751800266161945
62 0.0005996237767182044 0.0039733594245070615 -0.0015995923304815928
616 7.707170468146548e-05 0.0025924347773089106 0.0002801314127696111
685 -0.001539907403184637 -0.0036589254353077034 -0.0009651333206428384
618 0.0020165938149400943 0.002721573630718007 0.003358543420910457
617 0.0011845481784665145 0.0026661736850768047 0.0020379195078889687
728 0.0027312827747453194 -0.0010896187629993437 0.0024366100132257665
620 -0.0003292513724451081 0.0030253622004686714 -0.003435696348203834
801 -0.0023591091344554228 -0.0005514999651444977 -0.0035818687362171057
982 -0.0012082954496539938 0.0029394639304336084 -0.003053152874293215
729 0.004047568898328901 -0.004197864180736027 0.003997679191264247
687 -0.0015756781543742055 -0.0006718584741735114 -0.00034513554328318406
686 -0.0015603326745350016 -0.0019532958023278507 -0.0006111116012754439
577 -0.0021261622250185203 -0.0011062619884916374 0.0007999750428101557
578 -0.0011890284063688936 -0.003652489713730834 -0.0012904146620858674
579 -0.000484960985474333 -0.0055654672969137845 -0.002860921732582419
652 0.0016181829449460586 0.000984536765506528 0.004190920745532886
653 0.0018490243816351505 0.0019163326009459043 0.002005104384119556
654 0.002022455253225595 0.00261638960198704 0.00036290339051226546
721 -0.0017147267306045627 -0.0014485599893755323 0.00011690315884491033
722 -0.004190478315846968 0.003449415263831752 -0.0015152854987532463
723 -0.006050507266577772 0.0071292577105595695 -0.002741546717481198
736 0.0001413901180578592 0.0009322802893249205 0.0003331591244029792
737 -0.0014609773235638402 0.002046086788384737 0.0025184805689879167
738 -0.0026648339014575455 0.002882888164626428 0.004160309732224773
760 0.0028153754251996135 0.003954285160050516 0.001163597628161212
761 0.001616922586519602 0.005120227483301741 0.00378746468157581
762 0.0007165265252515665 0.005996198436549576 0.00575877259118665
796 0.0018927207855947434 0.002337391119021935 -0.0012573245504259628
797 0.004776388192503757 0.0033583480590616893 -0.002588187372786133
798 0.00694288377029189 0.004125391682195462 -0.0035880628828320704
799 -0.0024909225203024335 -0.0030049535267274 -0.0011296968777979909
800 -0.0024156564416207885 -0.001604019716998937 -0.002529898828841904
950 -0.00030760026489413586 0.003950382426932318 -0.0031670552447387386
1036 -0.000802360926897174 -0.0037594024869302026 -0.00042423427792628545
778 0.0018661058021665442 0.0028271995735198396 0.0020665336099156906
779 0.001970779369622795 0.0005323447670583647 0.0031898431438799465
983 -0.0022290064209507937 0.00594398724381744 -0.004373035159059725
673 -0.0019154863139167742 -0.0037223699244415018 0.002395190120200012
518 0.0002672454074898593 2.0576639463331104e-05 -0.0022209905491912194
753 -0.0036083541473039935 0.0010446354005035057 0.0002638969700543758
511 -0.0036019936024628786 -0.0005775140838926993 -0.0020021512345959813
519 -0.0007864223813718509 0.00031413550690869574 8.165521044028188e-05
780 0.002049420484912982 -0.0011917766687052152 0.0040337841379037365
676 -0.00184579944827773 -0.00044662156890078793 -0.00024994992990355326
515 -0.001803108867427589 0.0008025081424739048 0.004140088229779384
191 0.00097256907098361 0.002490219583719569 0.004659756841917274
192 -0.002353802734177144 0.0052455542499203955 0.00235218344513067
190 0.0054000648185614656 -0.0011772094447586468 0.007731202849740418
677 -0.0002601746331691207 -0.0009702254718281616 -0.00022140394009080385
678 0.0009311032311689733 -0.0013636084040924243 -0.00019995737501719737
752 -0.003441762424104723 -0.0006733093823044845 0.0018413020021799083
525 0.00516114861060526 -0.001535484702198146 0.001765126211946513
703 0.003589161802741823 0.0009904155287103094 -0.005057240503050306
516 -0.0018581591665823376 0.0019276863907918807 0.0064986104015551435
704 0.0018224336051090493 -0.0016763863059814105 -0.006119134190225968
705 0.0004950930046797551 -0.0036799510610062893 -0.006916933538318328
666 -0.0022370506889835082 -0.001851163746536736 -0.005624278338480083
665 -0.0030498308544864637 0.0009659517460541324 -0.00417580112502086
314 6.887491350003621e-05 -0.0031742490637686575 0.0031911607278342084
664 -0.004131664436919099 0.004715612816572649 -0.00224783664038197
832 -0.0010158740179249945 -0.0052156757705532995 0.00014826862334585303
13 -0.0016173863310560757 -0.004863527450775759 0.004725525476270561
514 -0.001729835349105792 -0.0006951361984160518 0.0010008279492826908
319 0.00928153460057695 0.004835107153375037 -0.000413545264952626
861 -0.0006613041036908484 -0.0007631789335326559 -0.004083236264378473
700 0.0011707819636700763 -0.003275716766448999 -0.0007690994524560029
724 -0.0029435777711001527 0.0027254766084181237 -0.0016752827793365605
614 0.002516432751738758 0.002122561842879221 -0.0019708991939082787
512 -0.0020064413570555165 0.0014222655725219671 0.002204361799293401
727 0.0009792684010904306 0.0030475445415075516 0.0003587824123793947
613 0.007002755346106199 0.0015236745788033217 -0.0021593317326188857
513 -0.0008077050272267288 0.0029246974312698614 0.005364709578650561
332 0.0017603508141914438 -0.0004674790036417884 -5.7023347821386845e-05
833 0.001202412411060951 -0.0008599710019803846 -0.0017477426597528507
860 -0.0010566334609879858 -0.0021217609401069353 -0.0006426449005230819
594 0.004410319656037768 0.0019487320585265902 0.002874452407564924
1038 -0.0022145164285500814 -0.0032036026499791055 -0.00046720700850981907
751 -0.0032200240889907515 -0.002959942887511317 0.003940873090748039
592 -0.003439271254331154 -0.0003997251258322283 0.0008960633010560734
927 0.003079897488030696 0.004111378471583288 0.0008998437105797454
207 0.002691916848101076 0.001590509515875972 -0.0025932150932624623
880 0.0018658904014832143 0.0011636409886980157 0.001526678893996968
730 0.00456181334306849 0.001262970911011358 -0.009717929025721425
370 0.00177744595086015 0.0014216972161050334 -0.0015319297304907625
702 0.0029615093853974993 0.0003435124652794606 -0.0012040425905057183
955 0.0006033447150629044 0.0003062389250020212 0.00029998379155206584
859 -0.0015828281111501408 -0.0039300723403873005 0.003936880337452095
1041 0.003544571609495082 0.0010859039329492815 -0.00044913928039305457
731 -0.0021461243825487623 -0.0005531815263888661 -0.0015491754106112757
881 -0.0018069239003952247 0.0012336707246773954 -0.0012051781798991194
957 0.00017691308982278683 -0.0003145040462343365 0.004633330798377395
1039 0.0027524110491375926 0.0011940673025681206 0.004021605350621929
593 0.0010428829918565125 0.0009412552464008459 0.002025733017045554
956 0.00035985020157763094 -4.820830366094105e-05 0.002774345819921002
882 -0.004566304515507792 0.0012862839743709943 -0.0032576188516509254
701 0.0021932959530880348 -0.0012091194298298534 -0.0010174540807824993
707 -0.003827670998977244 -0.0012922617380710494 -0.0030914945935310418
524 0.0034166864934982158 -0.0024351947818431123 0.0009119324085737039
903 -0.0009429726985519734 -0.0035831879685182073 0.00033385569480146146
571 0.0008821026285103302 -0.0019247289215329345 0.0008199182949028519
572 0.00018035365727443623 -0.0014389203411109205 -7.943752487492458e-05
573 -0.00034686943345279105 -0.0010739329855600954 -0.0007551223842793971
455 -0.004542770065323794 0.0006393003083968122 -0.00041421701107336795
115 0.0009009264296195184 0.0012625276693903616 0.0024490294697170323
769 -0.0040767112983354815 -0.0018864238556818619 0.0010365614857568504
116 -0.0011560590268702214 0.001872339036465207 0.005676830990021275
489 -0.0016164486088296672 -0.0001855411594370702 0.0018087095233687619
488 -0.001525181448633736 -0.000935302701424302 0.000569142419606909
706 0.0011598151979368633 -0.0033264218897943233 -0.0022085201900486073
910 0.001103713792853156 -0.003809512237343758 -0.0023334772600901834
770 -0.003873239238692004 -0.003981600190981108 0.002976553576141661
911 0.0020668059979669475 -0.0005289258362966864 -0.0016983578840521832
912 0.002790375920899848 0.001935774466308166 -0.001221193521665189
1017 0.005897143204199299 -0.0014274092873967155 -0.00121583006545755
831 -0.0026960458751462053 0.003080839641287608 -0.002412748049033934
923 0.0010629546848512955 -0.00024598661306421144 9.878524364421504e-05
768 0.001535819317548016 -0.0007188011485071328 -0.0024042504038056774
14 -0.001851256367876454 -0.002720543468360135 0.0011716255532001085
615 -0.0008541355870165454 0.0025725050666037834 -0.001829330072292581
38 -0.002781501587441301 0.0017740568705924488 0.001624277683010871
767 -0.000312839559532673 -0.0010287817322647689 -0.003734147366945485
725 -0.001274985368308717 0.002748431399194566 -0.001275100504194786
37 -0.003291475632647892 0.0024551221133337644 0.0013870802634591178
864 -0.0028953507136481836 -0.0008998902809218162 -0.0044442431868768435
930 -0.0033005490201671647 -0.0049396543481448505 -0.002975698052289701
924 0.0002610692033220689 0.0014691281096412727 -0.0007282920799784333
15 -0.002026962622812279 -0.001110522385467369 -0.0014984148435482625
804 0.0012087245956442466 -0.0037232194439980335 -0.0016907402626484807
863 -0.0028936535920737116 -0.001359204736855215 -0.004918974264301107
862 -0.0028913946748527217 -0.001970565378287743 -0.005550854868651466
827 0.0027168211893000443 -0.0021152473050186555 0.0047923625361420705
496 -0.0034834156474072447 -0.002830750415945816 -0.0022178166330585605
794 0.0010462849996372655 0.0012759339491833245 0.0008067304598224394
1015 0.004962008227656082 -0.0007249417225882553 0.0011122685626931475
262 -0.000696949388562412 -0.0015777131643297006 -0.0015042015243252602
371 0.0021245038178166996 0.001450568719008568 -0.0015403616773451245
272 0.002155263906193316 -0.002292785913767174 -0.003588739501298262
307 0.0006323300399653686 0.003315191325040623 -0.0011468580010290071
12 0.002263236746875372 0.0024354228492329717 -0.0038942858029923514
273 0.002570989405751214 -0.0003559521275558284 -0.007233042416539616
399 -0.0025680960819514514 -0.0023165959730847715 -0.002507383337407869
786 -0.00030306840597599184 -0.0026837438001797126 -0.00029154985393601163
9 -0.0025724423886155944 -0.0003728170386257118 0.002557767269762691
398 -0.002030301330714644 -0.0021740887799188147 -0.002018160361650556
431 -0.0024945090500278584 -0.0012812102755125608 -7.981071258073325e-05
775 0.006668766022241375 0.0009845264372950841 0.009687749250184868
44 0.0005538140494790471 0.0003946586132006837 0.0028315635442487798
103 0.000959933228315881 -0.00029372275464230357 -0.004183692744524836
1022 0.00030724758988795366 0.0055378970250818185 -0.0024922417086159026
76 0.0029338872156311115 -0.0026091002838585994 0.0027377610272051934
543 -0.00044701742670244776 0.006368480936724513 -0.0011100966365072567
308 0.002983534455679776 0.0022834067854447266 -0.0014383201037254266
419 -0.00429360324476026 0.0017858082891661468 -0.0034155387765555474
1016 0.004026873251112866 -2.2474157779796364e-05 0.0034403671908438457
1021 -0.001638510404712687 0.0022579606518025827 -0.00469857234397103
244 -0.0010876422848854247 0.0018563282813759258 -0.00011080275844699977
39 -0.0023983587495815446 0.0012623734382212148 0.0018024837962715063
406 0.0031695394397716972 0.0010030118780177517 0.007092184563624125
819 0.011667022844263596 0.0034427775907102443 0.003881297867360618
397 -0.001314481177815175 -0.0019844076412190957 -0.0013669906272804058
331 -0.0020175587825929445 -0.00515067080903853 -0.0010119543172900447
667 -0.003343448978624857 -0.0043388613898976925 -0.003595076176226876
818 0.005881209704242446 0.0031359028477539993 0.00020907090245618975
11 0.0002694040032515342 0.0009317903891542446 -0.004394829508883895
372 0.002385247942536652 0.0014722598416445345 -0.0015466965880662259
456 -0.0051700710472286325 0.0035670566004210365 0.0016538399092345711
104 -0.0016140811359168141 -0.0006319694185040316 -0.003994000893093057
826 0.002837937094306303 -0.0028380084830644577 0.007526811748600565
1023 -0.0035842683993133275 -0.0010219757214766528 -0.006904902979326158
231 -0.003754692116907406 -0.0013955492118823281 -0.0019429487894607792
674 -0.0009989561686941856 -0.0025288384858023474 0.0016243772864727925

Bonds

1 2 179 180
2 1 196 197
3 2 197 198
4 2 221 222
5 1 226 227
6 2 227 228
7 1 295 296
8 2 296 297
9 1 322 323
10 2 323 324
11 1 412 413
12 2 413 414
13 2 440 441
14 1 958 959
15 1 493 494
16 1 439 440
17 2 959 960
18 2 86 87
19 1 85 86
20 2 305 306
21 1 304 305
22 1 220 221
23 2 821 822
24 2 494 495
25 1 178 179
26 3 970 971
27 3 970 972
28 3 988 989
29 3 988 990
30 1 160 161
31 2 161 162
32 1 25 26
33 1 163 164
34 2 626 627
35 1 625 626
36 3 1009 1010
37 3 1009 1011
38 1 820 821
39 3 979 980
40 3 979 981
41 2 692 693
42 2 407 408
43 1 187 188
44 2 254 255
45 2 152 153
46 1 151 152
47 1 253 254
48 1 817 818
49 2 23 24
50 2 188 189
51 1 691 692
52 1 136 137
53 1 79 80
54 2 947 948
55 1 787 788
56 1 52 53
57 1 457 458
58 2 185 186
59 3 1048 1049
60 3 1048 1050
61 2 311 312
62 1 310 311
63 2 782 783
64 1 70 71
65 1 766 767
66 2 458 459
67 2 26 27
68 3 964 965
69 3 964 966
70 2 53 54
71 1 46 47
72 2 35 36
73 1 10 11
74 1 946 947
75 2 110 111
76 2 485 486
77 1 109 110
78 1 184 185
79 2 536 537
80 1 82 83
81 2 29 30
82 1 31 32
83 2 32 33
84 1 94 95
85 2 95 96
86 1 124 125
87 2 125 126
88 2 479 480
89 1 478 479
90 1 175 176
91 1 415 416
92 2 416 417
93 1 748 749
94 2 749 750
95 2 89 90
96 1 88 89
97 2 101 102
98 1 100 101
99 1 286 287
100 1 421 422
101 2 908 909
102 1 907 908
103 2 302 303
104 2 317 318
105 1 316 317
106 1 631 632
107 2 422 423
108 2 257 258
109 2 473 474
110 1 472 473
111 2 287 288
112 2 632 633
113 1 250 251
114 2 134 135
115 1 301 302
116 1 535 536
117 2 176 177
118 1 166 167
119 2 248 249
120 2 251 252
121 2 941 942
122 1 940 941
123 1 256 257
124 2 776 777
125 1 28 29
126 2 143 144
127 1 247 248
128 2 809 810
129 2 836 837
130 1 43 44
131 1 952 953
132 2 914 915
133 2 218 219
134 2 170 171
135 1 409 410
136 1 682 683
137 2 59 60
138 1 208 209
139 2 329 330
140 1 268 269
141 3 994 995
142 3 994 996
143 1 763 764
144 1 913 914
145 1 484 485
146 2 410 411
147 1 142 143
148 2 47 48
149 1 169 170
150 1 34 35
151 2 137 138
152 2 71 72
153 2 56 57
154 1 55 56
155 1 829 830
156 2 953 954
157 2 77 78
158 2 365 366
159 1 541 542
160 2 80 81
161 1 658 659
162 2 491 492
163 1 22 23
164 1 427 428
165 2 428 429
166 2 659 660
167 1 364 365
168 1 1 2
169 2 2 3
170 2 74 75
171 2 113 114
172 1 118 119
173 2 119 120
174 1 241 242
175 2 242 243
176 1 337 338
177 2 338 339
178 1 460 461
179 2 461 462
180 1 73 74
181 1 466 467
182 2 467 468
183 2 149 150
184 2 284 285
185 1 283 284
186 2 389 390
187 1 64 65
188 1 148 149
189 1 490 491
190 2 65 66
191 2 260 261
192 2 671 672
193 1 259 260
194 1 670 671
195 1 481 482
196 2 713 714
197 1 712 713
198 1 379 380
199 2 791 792
200 1 790 791
201 2 719 720
202 1 841 842
203 2 482 483
204 1 403 404
205 2 404 405
206 1 388 389
207 2 842 843
208 3 1012 1013
209 3 1012 1014
210 1 325 326
211 1 355 356
212 1 274 275
213 1 718 719
214 2 275 276
215 2 392 393
216 1 313 314
217 2 194 195
218 2 356 357
219 1 112 113
220 1 583 584
221 2 662 663
222 2 542 543
223 2 326 327
224 1 445 446
225 1 154 155
226 2 638 639
227 1 391 392
228 1 661 662
229 2 83 84
230 2 203 204
231 2 683 684
232 2 158 159
233 1 373 374
234 1 202 203
235 1 193 194
236 1 49 50
237 3 991 992
238 3 991 993
239 1 157 158
240 2 209 210
241 1 232 233
242 2 50 51
243 3 997 998
244 3 997 999
245 2 374 375
246 1 4 5
247 3 1042 1043
248 3 1042 1044
249 2 173 174
250 2 269 270
251 2 236 237
252 1 235 236
253 1 424 425
254 2 425 426
255 1 328 329
256 2 890 891
257 1 889 890
258 3 973 974
259 3 973 975
260 1 130 131
261 2 131 132
262 1 58 59
263 1 172 173
264 1 181 182
265 2 182 183
266 1 349 350
267 2 350 351
268 1 376 377
269 3 976 977
270 3 976 978
271 2 278 279
272 1 277 278
273 3 1000 1001
274 3 1000 1002
275 2 563 564
276 2 341 342
277 2 386 387
278 1 385 386
279 1 340 341
280 2 233 234
281 1 292 293
282 2 293 294
283 2 377 378
284 2 17 18
285 1 16 17
286 2 437 438
287 1 436 437
288 1 106 107
289 1 280 281
290 1 562 563
291 2 893 894
292 1 265 266
293 2 107 108
294 2 266 267
295 1 925 926
296 1 40 41
297 2 41 42
298 2 434 435
299 1 934 935
300 2 5 6
301 2 755 756
302 2 245 246
303 2 347 348
304 2 359 360
305 1 346 347
306 1 598 599
307 2 464 465
308 1 358 359
309 1 637 638
310 2 599 600
311 2 446 447
312 2 155 156
313 1 91 92
314 2 788 789
315 1 463 464
316 3 961 962
317 3 961 963
318 2 164 165
319 1 433 434
320 2 281 282
321 3 1003 1004
322 3 1003 1005
323 1 229 230
324 3 967 968
325 3 967 969
326 1 367 368
327 2 230 231
328 1 217 218
329 1 352 353
330 2 368 369
331 2 353 354
332 2 764 765
333 2 92 93
334 1 892 893
335 1 844 845
336 2 215 216
337 1 781 782
338 1 133 134
339 2 167 168
340 1 835 836
341 3 985 986
342 3 985 987
343 1 553 554
344 2 935 936
345 1 754 755
346 2 584 585
347 1 214 215
348 2 590 591
349 1 508 509
350 2 509 510
351 1 604 605
352 2 605 606
353 1 745 746
354 2 746 747
355 1 868 869
356 2 869 870
357 2 68 69
358 1 505 506
359 2 506 507
360 2 641 642
361 2 443 444
362 1 640 641
363 1 442 443
364 1 715 716
365 2 905 906
366 1 904 905
367 2 884 885
368 2 146 147
369 2 716 717
370 1 883 884
371 2 530 531
372 1 580 581
373 1 529 530
374 1 523 524
375 1 502 503
376 1 19 20
377 1 289 290
378 2 944 945
379 1 943 944
380 1 67 68
381 1 271 272
382 2 449 450
383 2 200 201
384 2 824 825
385 2 20 21
386 1 223 224
387 2 830 831
388 1 895 896
389 1 448 449
390 2 581 582
391 3 1045 1046
392 3 1045 1047
393 2 224 225
394 1 871 872
395 2 521 522
396 2 773 774
397 2 887 888
398 1 823 824
399 2 290 291
400 1 520 521
401 1 199 200
402 2 587 588
403 2 845 846
404 3 1033 1034
405 3 1033 1035
406 2 263 264
407 2 344 345
408 1 361 362
409 2 239 240
410 1 589 590
411 1 343 344
412 1 649 650
413 2 872 873
414 1 430 431
415 2 8 9
416 1 238 239
417 1 7 8
418 1 772 773
419 1 874 875
420 1 886 887
421 3 1018 1019
422 3 1018 1020
423 2 878 879
424 1 877 878
425 2 926 927
426 2 299 300
427 2 650 651
428 2 128 129
429 1 568 569
430 2 758 759
431 1 757 758
432 2 602 603
433 2 539 540
434 1 709 710
435 2 710 711
436 2 527 528
437 1 547 548
438 2 548 549
439 1 574 575
440 2 575 576
441 1 607 608
442 2 608 609
443 1 655 656
444 2 656 657
445 2 689 690
446 2 848 849
447 1 688 689
448 2 839 840
449 2 452 453
450 1 838 839
451 1 451 452
452 1 601 602
453 2 569 570
454 2 695 696
455 1 694 695
456 2 815 816
457 1 847 848
458 1 538 539
459 2 557 558
460 1 127 128
461 1 556 557
462 2 629 630
463 1 739 740
464 2 740 741
465 1 922 923
466 1 526 527
467 2 476 477
468 1 475 476
469 1 211 212
470 1 802 803
471 2 212 213
472 1 928 929
473 1 499 500
474 1 334 335
475 2 554 555
476 1 784 785
477 2 785 786
478 1 298 299
479 2 383 384
480 1 205 206
481 2 929 930
482 1 814 815
483 2 668 669
484 1 628 629
485 1 916 917
486 2 206 207
487 2 500 501
488 2 875 876
489 1 949 950
490 2 803 804
491 2 497 498
492 1 808 809
493 1 145 146
494 2 896 897
495 2 503 504
496 2 917 918
497 2 335 336
498 1 586 587
499 1 793 794
500 1 898 899
501 1 565 566
502 1 865 866
503 1 646 647
504 2 647 648
505 1 400 401
506 2 362 363
507 1 550 551
508 2 899 900
509 2 866 867
510 1 595 596
511 2 596 597
512 1 622 623
513 2 623 624
514 1 634 635
515 2 635 636
516 1 697 698
517 2 698 699
518 1 742 743
519 2 743 744
520 3 1027 1028
521 3 1027 1029
522 2 395 396
523 1 394 395
524 2 551 552
525 2 680 681
526 1 679 680
527 1 97 98
528 3 1024 1025
529 3 1024 1026
530 2 566 567
531 2 122 123
532 1 937 938
533 2 938 939
534 1 931 932
535 1 850 851
536 2 851 852
537 1 139 140
538 2 140 141
539 1 559 560
540 2 560 561
541 2 902 903
542 1 901 902
543 2 98 99
544 1 919 920
545 2 812 813
546 2 611 612
547 1 610 611
548 2 932 933
549 1 121 122
550 1 811 812
551 1 418 419
552 2 401 402
553 2 857 858
554 1 469 470
555 2 920 921
556 1 487 488
557 1 856 857
558 3 1006 1007
559 3 1006 1008
560 2 380 381
561 1 454 455
562 2 470 471
563 1 805 806
564 2 734 735
565 1 853 854
566 2 806 807
567 1 382 383
568 1 619 620
569 1 643 644
570 2 854 855
571 2 545 546
572 3 1030 1031
573 3 1030 1032
574 1 544 545
575 1 733 734
576 2 320 321
577 2 533 534
578 2 644 645
579 1 517 518
580 1 61 62
581 1 532 533
582 2 62 63
583 1 616 617
584 1 685 686
585 2 617 618
586 2 728 729
587 2 620 621
588 3 982 983
589 3 982 984
590 2 686 687
591 1 577 578
592 2 578 579
593 1 652 653
594 2 653 654
595 1 721 722
596 2 722 723
597 1 736 737
598 2 737 738
599 1 760 761
600 2 761 762
601 1 796 797
602 2 797 798
603 1 799 800
604 2 800 801
605 2 950 951
606 3 1036 1037
607 3 1036 1038
608 1 778 779
609 2 779 780
610 1 673 674
611 2 518 519
612 1 511 512
613 1 676 677
614 2 515 516
615 2 191 192
616 1 190 191
617 2 677 678
618 2 752 753
619 1 703 704
620 2 704 705
621 2 665 666
622 2 314 315
623 1 664 665
624 1 832 833
625 1 13 14
626 1 514 515
627 1 319 320
628 1 700 701
629 1 724 725
630 2 614 615
631 2 512 513
632 1 727 728
633 1 613 614
634 2 332 333
635 2 833 834
636 2 860 861
637 1 751 752
638 1 592 593
639 1 880 881
640 1 730 731
641 1 370 371
642 1 955 956
643 1 859 860
644 2 731 732
645 2 881 882
646 3 1039 1040
647 3 1039 1041
648 2 593 594
649 2 956 957
650 2 701 702
651 2 707 708
652 2 524 525
653 1 571 572
654 2 572 573
655 2 455 456
656 1 115 116
657 1 769 770
658 2 116 117
659 2 488 489
660 1 706 707
661 1 910 911
662 2 770 771
663 2 911 912
664 2 923 924
665 2 14 15
666 2 38 39
667 2 767 768
668 2 725 726
669 1 37 38
670 2 863 864
671 1 862 863
672 2 827 828
673 1 496 497
674 2 794 795
675 3 1015 1016
676 3 1015 1017
677 1 262 263
678 2 371 372
679 2 272 273
680 1 307 308
681 2 398 399
682 2 431 432
683 1 775 776
684 2 44 45
685 1 103 104
686 1 76 77
687 2 308 309
688 2 419 420
689 3 1021 1022
690 3 1021 1023
691 1 244 245
692 1 406 407
693 1 397 398
694 1 331 332
695 1 667 668
696 2 818 819
697 2 11 12
698 2 104 105
699 1 826 827
700 2 674 675

Angles

1 1 178 179 180
2 1 196 197 198
3 1 220 221 222
4 1 226 227 228
5 1 295 296 297
6 1 322 323 324
7 1 412 413 414
8 1 439 440 441
9 1 958 959 960
10 1 85 86 87
11 1 304 305 306
12 1 820 821 822
13 1 493 494 495
14 2 971 970 972
15 2 989 988 990
16 1 160 161 162
17 1 625 626 627
18 2 1010 1009 1011
19 2 980 979 981
20 1 691 692 693
21 1 406 407 408
22 1 253 254 255
23 1 151 152 153
24 1 22 23 24
25 1 187 188 189
26 1 946 947 948
27 1 184 185 186
28 2 1049 1048 1050
29 1 310 311 312
30 1 781 782 783
31 1 457 458 459
32 1 25 26 27
33 2 965 964 966
34 1 52 53 54
35 1 34 35 36
36 1 109 110 111
37 1 484 485 486
38 1 535 536 537
39 1 28 29 30
40 1 31 32 33
41 1 94 95 96
42 1 124 125 126
43 1 478 479 480
44 1 415 416 417
45 1 748 749 750
46 1 88 89 90
47 1 100 101 102
48 1 907 908 909
49 1 301 302 303
50 1 316 317 318
51 1 421 422 423
52 1 256 257 258
53 1 472 473 474
54 1 286 287 288
55 1 631 632 633
56 1 133 134 135
57 1 175 176 177
58 1 247 248 249
59 1 250 251 252
60 1 940 941 942
61 1 775 776 777
62 1 142 143 144
63 1 808 809 810
64 1 835 836 837
65 1 913 914 915
66 1 217 218 219
67 1 169 170 171
68 1 58 59 60
69 1 328 329 330
70 2 995 994 996
71 1 409 410 411
72 1 46 47 48
73 1 136 137 138
74 1 70 71 72
75 1 55 56 57
76 1 952 953 954
77 1 76 77 78
78 1 364 365 366
79 1 79 80 81
80 1 490 491 492
81 1 427 428 429
82 1 658 659 660
83 1 1 2 3
84 1 73 74 75
85 1 112 113 114
86 1 118 119 120
87 1 241 242 243
88 1 337 338 339
89 1 460 461 462
90 1 466 467 468
91 1 148 149 150
92 1 283 284 285
93 1 388 389 390
94 1 64 65 66
95 1 259 260 261
96 1 670 671 672
97 1 712 713 714
98 1 790 791 792
99 1 718 719 720
100 1 481 482 483
101 1 403 404 405
102 1 841 842 843
103 2 1013 1012 1014
104 1 274 275 276
105 1 391 392 393
106 1 193 194 195
107 1 355 356 357
108 1 661 662 663
109 1 541 542 543
110 1 325 326 327
111 1 637 638 639
112 1 82 83 84
113 1 202 203 204
114 1 682 683 684
115 1 157 158 159
116 2 992 991 993
117 1 208 209 210
118 1 49 50 51
119 2 998 997 999
120 1 373 374 375
121 2 1043 1042 1044
122 1 172 173 174
123 1 268 269 270
124 1 235 236 237
125 1 424 425 426
126 1 889 890 891
127 2 974 973 975
128 1 130 131 132
129 1 181 182 183
130 1 349 350 351
131 2 977 976 978
132 1 277 278 279
133 2 1001 1000 1002
134 1 562 563 564
135 1 340 341 342
136 1 385 386 387
137 1 232 233 234
138 1 292 293 294
139 1 376 377 378
140 1 16 17 18
141 1 436 437 438
142 1 892 893 894
143 1 106 107 108
144 1 265 266 267
145 1 40 41 42
146 1 433 434 435
147 1 4 5 6
148 1 754 755 756
149 1 244 245 246
150 1 346 347 348
151 1 358 359 360
152 1 463 464 465
153 1 598 599 600
154 1 445 446 447
155 1 154 155 156
156 1 787 788 789
157 2 962 961 963
158 1 163 164 165
159 1 280 281 282
160 2 1004 1003 1005
161 2 968 967 969
162 1 229 230 231
163 1 367 368 369
164 1 352 353 354
165 1 763 764 765
166 1 91 92 93
167 1 214 215 216
168 1 166 167 168
169 2 986 985 987
170 1 934 935 936
171 1 583 584 585
172 1 589 590 591
173 1 508 509 510
174 1 604 605 606
175 1 745 746 747
176 1 868 869 870
177 1 67 68 69
178 1 505 506 507
179 1 640 641 642
180 1 442 443 444
181 1 904 905 906
182 1 883 884 885
183 1 145 146 147
184 1 715 716 717
185 1 529 530 531
186 1 943 944 945
187 1 448 449 450
188 1 199 200 201
189 1 823 824 825
190 1 19 20 21
191 1 829 830 831
192 1 580 581 582
193 2 1046 1045 1047
194 1 223 224 225
195 1 520 521 522
196 1 772 773 774
197 1 886 887 888
198 1 289 290 291
199 1 586 587 588
200 1 844 845 846
201 2 1034 1033 1035
202 1 262 263 264
203 1 343 344 345
204 1 238 239 240
205 1 871 872 873
206 1 7 8 9
207 2 1019 1018 1020
208 1 877 878 879
209 1 925 926 927
210 1 298 299 300
211 1 649 650 651
212 1 127 128 129
213 1 757 758 759
214 1 601 602 603
215 1 538 539 540
216 1 709 710 711
217 1 526 527 528
218 1 547 548 549
219 1 574 575 576
220 1 607 608 609
221 1 655 656 657
222 1 688 689 690
223 1 847 848 849
224 1 838 839 840
225 1 451 452 453
226 1 568 569 570
227 1 694 695 696
228 1 814 815 816
229 1 556 557 558
230 1 628 629 630
231 1 739 740 741
232 1 475 476 477
233 1 211 212 213
234 1 553 554 555
235 1 784 785 786
236 1 382 383 384
237 1 928 929 930
238 1 667 668 669
239 1 205 206 207
240 1 499 500 501
241 1 874 875 876
242 1 802 803 804
243 1 496 497 498
244 1 895 896 897
245 1 502 503 504
246 1 916 917 918
247 1 334 335 336
248 1 646 647 648
249 1 361 362 363
250 1 898 899 900
251 1 865 866 867
252 1 595 596 597
253 1 622 623 624
254 1 634 635 636
255 1 697 698 699
256 1 742 743 744
257 2 1028 1027 1029
258 1 394 395 396
259 1 550 551 552
260 1 679 680 681
261 2 1025 1024 1026
262 1 565 566 567
263 1 121 122 123
264 1 937 938 939
265 1 850 851 852
266 1 139 140 141
267 1 559 560 561
268 1 901 902 903
269 1 97 98 99
270 1 811 812 813
271 1 610 611 612
272 1 931 932 933
273 1 400 401 402
274 1 856 857 858
275 1 919 920 921
276 2 1007 1006 1008
277 1 379 380 381
278 1 469 470 471
279 1 733 734 735
280 1 805 806 807
281 1 853 854 855
282 1 544 545 546
283 2 1031 1030 1032
284 1 319 320 321
285 1 532 533 534
286 1 643 644 645
287 1 61 62 63
288 1 616 617 618
289 1 727 728 729
290 1 619 620 621
291 2 983 982 984
292 1 685 686 687
293 1 577 578 579
294 1 652 653 654
295 1 721 722 723
296 1 736 737 738
297 1 760 761 762
298 1 796 797 798
299 1 799 800 801
300 1 949 950 951
301 2 1037 1036 1038
302 1 778 779 780
303 1 517 518 519
304 1 514 515 516
305 1 190 191 192
306 1 676 677 678
307 1 751 752 753
308 1 703 704 705
309 1 664 665 666
310 1 313 314 315
311 1 613 614 615
312 1 511 512 513
313 1 331 332 333
314 1 832 833 834
315 1 859 860 861
316 1 730 731 732
317 1 880 881 882
318 2 1040 1039 1041
319 1 592 593 594
320 1 955 956 957
321 1 700 701 702
322 1 706 707 708
323 1 523 524 525
324 1 571 572 573
325 1 454 455 456
326 1 115 116 117
327 1 487 488 489
328 1 769 770 771
329 1 910 911 912
330 1 922 923 924
331 1 13 14 15
332 1 37 38 39
333 1 766 767 768
334 1 724 725 726
335 1 862 863 864
336 1 826 827 828
337 1 793 794 795
338 2 1016 1015 1017
339 1 370 371 372
340 1 271 272 273
341 1 397 398 399
342 1 430 431 432
343 1 43 44 45
344 1 307 308 309
345 1 418 419 420
346 2 1022 1021 1023
347 1 817 818 819
348 1 10 11 12
349 1 103 104 105
350 1 673 674 675
