LAMMPS (4 Jul 2026 - Development - patch_4Jul2026-1015-g5287c6dc59)
  using 1 OpenMP thread(s) per MPI task


    units           real
    atom_style      full
    boundary        p p p
    bond_style      harmonic
    angle_style     harmonic

    pair_style      lj/cut/coul/long 12.00
    pair_modify     mix arithmetic shift yes
    kspace_style    pppm 1.0e-4
    special_bonds   lj/coul 0.0 0.0 0.0

    if $(is_file(system.cpt)) then "read_restart system.cpt" else "read_data ../../share/equil_nvt.data"
    if 0 then "read_restart system.cpt" else "read_data ../../share/equil_nvt.data"
read_data ../../share/equil_nvt.data
Reading data file ...
  orthogonal box = (0 0 0) to (30 30 30)
  1 by 2 by 2 MPI processor grid
  reading atoms ...
  1050 atoms
  reading velocities ...
  1050 velocities
  scanning bonds ...
  2 = max bonds/atom
  scanning angles ...
  1 = max angles/atom
  orthogonal box = (0 0 0) to (30 30 30)
  1 by 2 by 2 MPI processor grid
  reading bonds ...
  700 bonds
  reading angles ...
  350 angles
Finding 1-2 1-3 1-4 neighbors ...
  special bond factors lj:    0        0        0       
  special bond factors coul:  0        0        0       
     2 = max # of 1-2 neighbors
     1 = max # of 1-3 neighbors
     1 = max # of 1-4 neighbors
     2 = max # of special neighbors
  special bonds CPU = 0.000 seconds
  read_data CPU = 0.007 seconds

    include         ../../share/potential.inp



pair_coeff      1  1    0.194746   3.7500   # CH3 - CH3  in ACN
pair_coeff      2  2    0.119232   3.5500   # C   - C    in ACN
pair_coeff      3  3    0.119232   2.9500   # N   - N    in ACN

pair_coeff      4  4    0.053655   2.800  # C-C in CO2
pair_coeff      5  5    0.156989   3.050  # O-O in CO2


bond_coeff      1     1000.00       1.5400  # CH3#C in ACN
bond_coeff      2     1000.00       1.1570  # C#N   in ACN
bond_coeff      3     1000.00       1.1600  # C#O   in CO2

angle_coeff     1     250.00       180.0   # CH3-C-N in ACN
angle_coeff     2     250.00       180.0   # O-C-O   in CO2

# masses


mass  1  15.035    #CH3 in ACN
mass  2  12.0107   #C   in ACN
mass  3  14.0067   #N   in ACN
mass  4  12.0107   #C   in CO2
mass  5  15.9994   #O   in CO2



    timestep        0.2500 ## fs

    group           acn     type 1 2 3
960 atoms in group acn
    group           co2     type 4 5
90 atoms in group co2
    group           mobile  type 1 2 3 4 5
1050 atoms in group mobile

    variable        nco2   equal count(co2)/3.0
    variable        nacn   equal count(acn)/3.0
    variable        nmob   equal count(mobile)/3.0

    ## to check the system's temperature
    compute         mdtemp mobile temp
    compute_modify  mdtemp dynamic/dof yes

    molecule        mols    ../../share/acnmol.txt                             ../../share/co2mol.txt toff 3 boff 2 aoff 1
Read molecule template mols:
# C2H3N (UA) molecule file. TraPPE model.
  1 molecules
  0 fragments
  0 bodies
  3 atoms with max type 3
  2 bonds with max type 2
  1 angles with max type 1
  0 dihedrals with max type 0
  0 impropers with max type 0
Read molecule template mols:
# CO2 molecule file. TraPPE model.
  1 molecules
  0 fragments
  0 bodies
  3 atoms with max type 5
  2 bonds with max type 3
  1 angles with max type 2
  0 dihedrals with max type 0
  0 impropers with max type 0
    fix             ensemble all rigid/nvt/small molecule temp 300.0 300.0 $(dt*100)  mol mols
    fix             ensemble all rigid/nvt/small molecule temp 300.0 300.0 25  mol mols
Fix rigid/nvt/small setup ...
  create bodies CPU = 0.000 seconds
  350 rigid bodies with 1050 atoms
  1.54 = max distance from body owner to body atom
    fix_modify      ensemble dynamic/dof yes


    ## GCMC setup
    variable        co2tfac equal 5.0/3.0
    fix             co2gcmc co2 gcmc ${MDsteps} ${MCsteps} 0 0 ${seed1} ${temp} ${co2mu} 0.1                     mol mols molindex 2 group mobile tfac_insert ${co2tfac} rigid ensemble full_energy
    fix             co2gcmc co2 gcmc 400 ${MCsteps} 0 0 ${seed1} ${temp} ${co2mu} 0.1                     mol mols molindex 2 group mobile tfac_insert ${co2tfac} rigid ensemble full_energy
    fix             co2gcmc co2 gcmc 400 100 0 0 ${seed1} ${temp} ${co2mu} 0.1                     mol mols molindex 2 group mobile tfac_insert ${co2tfac} rigid ensemble full_energy
    fix             co2gcmc co2 gcmc 400 100 0 0 12442 ${temp} ${co2mu} 0.1                     mol mols molindex 2 group mobile tfac_insert ${co2tfac} rigid ensemble full_energy
    fix             co2gcmc co2 gcmc 400 100 0 0 12442 300.0 ${co2mu} 0.1                     mol mols molindex 2 group mobile tfac_insert ${co2tfac} rigid ensemble full_energy
    fix             co2gcmc co2 gcmc 400 100 0 0 12442 300.0 -8.30 0.1                     mol mols molindex 2 group mobile tfac_insert ${co2tfac} rigid ensemble full_energy
    fix             co2gcmc co2 gcmc 400 100 0 0 12442 300.0 -8.30 0.1                     mol mols molindex 2 group mobile tfac_insert 1.66666666666667 rigid ensemble full_energy

    fix             acngcmc acn gcmc ${MDsteps} ${MCsteps} 0 0 ${seed2} ${temp} ${acnmu} 0.1                     mol mols molindex 1 group mobile tfac_insert ${co2tfac} rigid ensemble full_energy
    fix             acngcmc acn gcmc 400 ${MCsteps} 0 0 ${seed2} ${temp} ${acnmu} 0.1                     mol mols molindex 1 group mobile tfac_insert ${co2tfac} rigid ensemble full_energy
    fix             acngcmc acn gcmc 400 100 0 0 ${seed2} ${temp} ${acnmu} 0.1                     mol mols molindex 1 group mobile tfac_insert ${co2tfac} rigid ensemble full_energy
    fix             acngcmc acn gcmc 400 100 0 0 10116 ${temp} ${acnmu} 0.1                     mol mols molindex 1 group mobile tfac_insert ${co2tfac} rigid ensemble full_energy
    fix             acngcmc acn gcmc 400 100 0 0 10116 300.0 ${acnmu} 0.1                     mol mols molindex 1 group mobile tfac_insert ${co2tfac} rigid ensemble full_energy
    fix             acngcmc acn gcmc 400 100 0 0 10116 300.0 -10.70 0.1                     mol mols molindex 1 group mobile tfac_insert ${co2tfac} rigid ensemble full_energy
    fix             acngcmc acn gcmc 400 100 0 0 10116 300.0 -10.70 0.1                     mol mols molindex 1 group mobile tfac_insert 1.66666666666667 rigid ensemble full_energy



    thermo          1000
    thermo_style    custom step temp c_mdtemp press etotal ke pe v_nacn v_nco2
    compute_modify  thermo_temp dynamic/dof yes

    variable        mtemp  equal temp
    variable        mpress equal press
    variable        mke    equal ke
    variable        mpe    equal pe
    variable        metot  equal etotal


    fix             nvtstat all ave/time 250 20  10000 v_mtemp c_mdtemp v_mpress v_mke v_mpe v_metot file thermal_statistics.dat

    variable        ciatt equal f_co2gcmc[3]
    variable        ciacc equal f_co2gcmc[4]
    variable        cdatt equal f_co2gcmc[5]
    variable        cdacc equal f_co2gcmc[6]

    fix             cgcmcstat all ave/time ${MDsteps} 1 ${MDsteps} v_ciatt v_ciacc v_cdatt v_cdacc v_nco2 v_nmob file co2_stats.dat
    fix             cgcmcstat all ave/time 400 1 ${MDsteps} v_ciatt v_ciacc v_cdatt v_cdacc v_nco2 v_nmob file co2_stats.dat
    fix             cgcmcstat all ave/time 400 1 400 v_ciatt v_ciacc v_cdatt v_cdacc v_nco2 v_nmob file co2_stats.dat

    variable        wiatt equal f_acngcmc[3]
    variable        wiacc equal f_acngcmc[4]
    variable        wdatt equal f_acngcmc[5]
    variable        wdacc equal f_acngcmc[6]

    fix             agcmcstat all ave/time ${MDsteps} 1 ${MDsteps} v_wiatt v_wiacc v_wdatt v_wdacc v_nacn v_nmob file acn_stats.dat
    fix             agcmcstat all ave/time 400 1 ${MDsteps} v_wiatt v_wiacc v_wdatt v_wdacc v_nacn v_nmob file acn_stats.dat
    fix             agcmcstat all ave/time 400 1 400 v_wiatt v_wiacc v_wdatt v_wdacc v_nacn v_nmob file acn_stats.dat

    dump            mdump all custom ${MDsteps} traj.lammpstrj id mol type xu yu zu #
    dump            mdump all custom 400 traj.lammpstrj id mol type xu yu zu 
    dump_modify     mdump flush yes

    restart         ${MDsteps} system.cpt system.cpt
    restart         400 system.cpt system.cpt

    run             ${runsteps} upto
    run             1000000 upto
PPPM initialization ...
  using 12-bit tables for long-range coulomb
  G vector (1/distance) = 0.19302139
  grid = 9 9 9
  stencil order = 5
  estimated absolute RMS force accuracy = 0.024107695
  estimated relative force accuracy = 7.2599609e-05
  using double precision FFTW3
  3d grid and FFT values/proc = 1400 225
Generated 10 of 10 mixed pair_coeff terms from arithmetic mixing rule
0 atoms in group FixGCMC:gcmc_exclusion_group:co2gcmc
0 atoms in group FixGCMC:rotation_gas_atoms:co2gcmc
0 atoms in group FixGCMC:gcmc_exclusion_group:acngcmc
0 atoms in group FixGCMC:rotation_gas_atoms:acngcmc
WARNING: Neighbor exclusions used with KSpace solver may give inconsistent Coulombic energies (src/neighbor.cpp:664)
Neighbor list info ...
  update: every = 1 steps, delay = 0 steps, check = yes
  max neighbors/atom: 2000, page size: 100000
  master list distance cutoff = 14
  ghost atom cutoff = 14
  binsize = 7, bins = 5 5 5
  1 neighbor lists, perpetual/occasional/extra = 1 0 0
  (1) pair lj/cut/coul/long, perpetual
      attributes: half, newton on
      pair build: half/bin/newton
      stencil: half/bin/3d
      bin: standard
Per MPI rank memory allocation (min/avg/max) = 13.66 | 13.67 | 13.67 Mbytes
   Step          Temp         c_mdtemp        Press          TotEng         KinEng         PotEng         v_nacn         v_nco2    
         0   283.60361      283.60361      2013.9599     -2076.0802      492.28625     -2568.3665      320            30           
      1000   306.46346      306.46346      1856.7237     -2060.4788      531.96695     -2592.4458      320            30           
      2000   301.36601      301.36601      2216.9319     -2028.5817      523.11867     -2551.7003      320            30           
      3000   303.08397      303.08397      1944.6683     -2061.3622      526.10074     -2587.463       320            30           
      4000   307.92468      307.92468      2353.0739     -2039.5287      534.50337     -2574.032       320            30           
      5000   302.04345      302.04345      2026.7091     -2057.8931      524.29458     -2582.1877      320            30           
      6000   300.88174      300.88174      1852.0429     -2052.1976      522.27806     -2574.4757      320            30           
      7000   303.1871       303.1871       2481.8275     -2030.9039      526.27976     -2557.1837      320            30           
      8000   282.42991      282.42991      2127.5736     -2069.6727      488.8458      -2558.5185      320            29           
      9000   320.97618      320.97618      2044.9886     -2002.9668      555.56388     -2558.5306      320            29           
     10000   307.65121      307.65121      1959.7521     -2046.7677      532.50026     -2579.268       320            29           
     11000   305.73817      305.73817      1420.5844     -2051.7136      529.18907     -2580.9027      320            29           
     12000   290.35882      290.35882      1394.9641     -2069.2126      502.5696      -2571.7822      320            29           
     13000   286.62253      286.62253      1785.8296     -2099.755       496.10263     -2595.8576      320            29           
     14000   300.38055      300.38055      2133.7167     -2036.0548      519.91578     -2555.9706      320            29           
     15000   306.28561      306.28561      2284.8097     -2033.9193      530.13661     -2564.056       320            29           
     16000   311.33746      311.33746      1842.8722     -2036.6028      538.88063     -2575.4834      320            29           
     17000   314.05685      314.05685      2126.8584     -1999.5344      543.58751     -2543.1219      320            29           
     18000   312.45598      312.45598      2063.2973     -2015.1671      540.81663     -2555.9837      320            29           
     19000   291.75434      291.75434      1351.4844     -2086.7934      504.98505     -2591.7785      320            29           
     20000   306.90651      306.90651      2088.9393     -2024.5256      531.21129     -2555.7368      320            29           
     21000   298.31745      298.31745      1870.7629     -2070.4603      516.34486     -2586.8051      320            29           
     22000   285.67866      285.67866      1889.3451     -2084.4345      494.46892     -2578.9035      320            29           
     23000   318.48974      318.48974      1651.6389     -2018.5357      551.26021     -2569.7959      320            29           
     24000   293.01919      293.01919      1911.5141     -2092.6135      505.7186      -2598.3321      320            28           
     25000   304.88211      304.88211      2017.0775     -2039.8685      526.19269     -2566.0612      320            28           
     26000   310.58176      310.58176      1470.0745     -2048.3046      536.02965     -2584.3342      320            28           
     27000   303.98113      303.98113      1529.2933     -2068.9194      524.6377      -2593.5571      320            28           
     28000   301.48479      301.48479      1838.5017     -2052.4317      520.32929     -2572.761       320            28           
     29000   280.78399      280.78399      1804.4195     -2095.2717      484.602       -2579.8737      320            28           
     30000   310.59455      310.59455      1807.7351     -2030.8502      536.05173     -2566.902       320            28           
     31000   309.23638      309.23638      1827.5596     -2035.1913      533.70768     -2568.899       320            28           
     32000   292.51999      292.51999      1876.1875     -2087.0586      504.85703     -2591.9157      320            28           
     33000   306.98348      306.98348      1600.0991     -2040.7179      529.81942     -2570.5374      320            28           
     34000   299.62895      299.62895      1814.6285     -2056.6856      517.12631     -2573.8119      320            28           
     35000   298.26523      298.26523      1941.4223     -2029.9492      514.77269     -2544.7218      320            28           
     36000   294.36025      294.36025      1467.2092     -2067.8512      508.03312     -2575.8843      320            28           
     37000   304.01333      304.01333      1625.0685     -2050.7405      524.69327     -2575.4337      320            28           
     38000   310.71162      310.71162      2133.9368     -2021.8675      536.25377     -2558.1213      320            28           
     39000   302.23567      302.23567      1521.2148     -2067.0001      521.62523     -2588.6254      320            28           
     40000   320.66612      320.66612      2046.2441     -2016.853       553.43414     -2570.2871      320            28           
     41000   288.13038      288.13038      1375.3165     -2085.8534      497.28106     -2583.1344      320            28           
     42000   294.38305      294.38305      1546.0338     -2074.5476      508.07247     -2582.62        320            28           
     43000   292.49757      292.49757      1384.3352     -2053.2412      504.81835     -2558.0595      320            28           
     44000   293.53766      293.53766      1679.795      -2057.6529      506.61342     -2564.2664      320            28           
     45000   289.4893       289.4893       1567.8854     -2070.2418      499.62641     -2569.8682      320            28           
     46000   308.87039      308.87039      1908.4218     -2030.2077      533.07601     -2563.2837      320            28           
     47000   291.32605      291.32605      1433.0536     -2087.575       502.79642     -2590.3714      320            28           
     48000   300.68119      300.68119      1584.9595     -2071.2439      518.94236     -2590.1863      320            28           
     49000   308.77892      308.77892      1319.5963     -2052.585       532.91815     -2585.5031      320            28           
     50000   292.50143      292.50143      1965.5587     -2072.3309      504.825       -2577.1559      320            28           
     51000   283.09482      283.09482      1907.5941     -2073.3597      487.18383     -2560.5435      320            27           
     52000   317.99556      317.99556      2065.6442     -1981.5586      547.24523     -2528.8039      320            27           
     53000   285.75542      285.75542      1922.1952     -2074.1031      491.76251     -2565.8656      320            27           
     54000   299.15491      299.15491      2399.7859     -2019.0309      514.82196     -2533.8528      320            27           
     55000   285.11514      285.11514      1713.6932     -2077.9776      490.66063     -2568.6382      320            27           
     56000   293.07697      293.07697      1670.4933     -2049.8299      504.36231     -2554.1922      320            27           
     57000   304.06927      304.06927      1501.8984     -2050.2193      523.27919     -2573.4985      320            27           
     58000   308.5978       308.5978       1324.3757     -2053.1718      531.07243     -2584.2443      320            27           
     59000   290.72766      290.72766      1642.2606     -2049.9099      500.31933     -2550.2293      320            27           
     60000   295.22054      295.22054      2069.8941     -2034.262       508.05123     -2542.3132      320            27           
     61000   296.85025      296.85025      1882.0527     -2043.1138      510.85584     -2553.9697      320            27           
     62000   314.34269      314.34269      1812.5598     -2007.1509      540.95893     -2548.1098      320            27           
     63000   283.36636      283.36636      2384.1745     -2047.688       487.65112     -2535.3392      320            27           
     64000   290.01778      290.01778      1793.8647     -2063.7212      497.65687     -2561.3781      320            26           
     65000   300.70782      300.70782      1797.8127     -2061.5242      516.00048     -2577.5247      320            26           
     66000   275.50601      275.50601      2026.821      -2077.2942      472.75536     -2550.0496      320            26           
     67000   316.57165      316.57165      1848.4505     -1999.1424      543.22206     -2542.3645      320            26           
     68000   285.3321       285.3321       1706.0118     -2069.8371      489.61647     -2559.4536      320            26           
     69000   282.91877      282.91877      1608.1687     -2058.762       485.4753      -2544.2373      320            26           
     70000   307.78821      307.78821      1478.0155     -2040.5952      528.15009     -2568.7453      320            26           
     71000   286.6505       286.6505       2132.481      -2056.5591      491.87878     -2548.4379      320            26           
     72000   302.39584      302.39584      1571.1847     -2047.4079      518.89704     -2566.305       320            26           
     73000   301.51035      301.51035      1803.8008     -2050.6035      517.37759     -2567.9811      320            26           
     74000   304.23965      304.23965      1834.52       -2025.4984      522.06094     -2547.5593      320            26           
     75000   293.57018      293.57018      1800.8119     -2017.0419      503.75263     -2520.7945      320            26           
     76000   291.18102      291.18102      1896.7607     -2046.8181      499.65294     -2546.4711      320            26           
     77000   318.85539      318.85539      1960.1813     -2004.8971      547.14085     -2552.0379      320            26           
     78000   310.13254      310.13254      1823.9516     -2034.391       532.17286     -2566.5639      320            26           
     79000   311.03876      311.03876      2413.6384     -2000.9567      533.72789     -2534.6846      320            26           
     80000   287.02573      287.02573      1679.0885     -2094.1892      492.52266     -2586.7119      320            26           
     81000   302.25045      302.25045      1729.6105     -2059.2974      518.64757     -2577.945       320            26           
     82000   279.36587      279.36587      1680.86       -2079.0183      479.3787      -2558.397       320            26           
     83000   316.19294      316.19294      1756.4295     -2000.9396      542.57221     -2543.5118      320            26           
     84000   310.71138      310.71138      1436.1468     -2041.3248      533.16612     -2574.4909      320            26           
     85000   316.74235      316.74235      1688.11       -2016.638       543.51499     -2560.153       320            26           
     86000   309.65947      309.65947      1555.652      -2029.9505      531.36109     -2561.3116      320            26           
     87000   300.13558      300.13558      2075.0761     -2033.6344      515.01854     -2548.653       320            26           
     88000   288.92745      288.92745      1930.8477     -2061.4178      495.78591     -2557.2037      320            26           
     89000   328.37011      328.37011      2305.155      -1964.9972      563.46767     -2528.4649      320            26           
     90000   311.15522      311.15522      1942.9115     -2000.5727      533.92772     -2534.5005      320            26           
     91000   296.00722      296.00722      1913.3474     -2026.441       507.93447     -2534.3755      320            26           
     92000   307.21863      307.21863      1485.9291     -2014.7315      527.17273     -2541.9042      320            26           
     93000   291.0502       291.0502       1451.3505     -2083.8615      499.42847     -2583.2899      320            26           
     94000   303.72028      303.72028      1912.1988     -2039.8701      521.16973     -2561.0398      320            26           
     95000   312.21022      312.21022      2173.0213     -2013.7768      534.18699     -2547.9638      320            25           
     96000   294.21514      294.21514      1610.1397     -2051.1909      503.39768     -2554.5885      320            25           
     97000   314.84345      314.84345      1973.3518     -2005.3915      538.69241     -2544.0839      320            25           
     98000   293.83635      293.83635      1493.0349     -2066.6937      502.74958     -2569.4433      320            25           
     99000   304.04041      304.04041      1411.0947     -2048.4275      520.20857     -2568.6361      320            25           
    100000   289.76106      289.76106      1616.9716     -2057.8991      495.77682     -2553.6759      320            25           
    101000   299.49201      299.49201      2115.7612     -1996.3586      512.42633     -2508.785       320            25           
    102000   306.25919      306.25919      1698.8171     -2021.4471      524.00488     -2545.452       320            25           
    103000   302.38081      302.38081      1593.2349     -2019.9104      517.36902     -2537.2794      320            25           
    104000   314.84772      314.84772      1458.0792     -2020.5619      538.69972     -2559.2616      320            25           
    105000   298.12374      298.12374      1500.8157     -2031.9976      510.08524     -2542.0828      320            25           
    106000   295.27946      295.27946      1776.4445     -2023.6968      505.21872     -2528.9155      320            25           
    107000   304.58819      304.58819      1625.7877     -2023.0316      521.14581     -2544.1774      320            25           
    108000   306.82792      306.82792      1790.3427     -2015.2215      524.97796     -2540.1995      320            25           
    109000   301.32797      301.32797      1384.4029     -2047.6146      515.56762     -2563.1822      320            25           
    110000   308.86739      308.86739      1440.2228     -2042.9281      528.46746     -2571.3955      320            25           
    111000   318.87274      318.87274      1991.968      -1999.0611      545.58647     -2544.6476      320            25           
    112000   289.05198      289.05198      1597.6816     -2048.9094      494.5636      -2543.473       320            25           
    113000   296.5639       296.5639       2073.5238     -2022.1081      507.41638     -2529.5244      320            25           
    114000   315.0547       315.0547       2042.5869     -2000.6771      539.05385     -2539.7309      320            25           
    115000   308.0038       308.0038       1801.8958     -2014.0246      526.98987     -2541.0144      320            25           
    116000   331.79723      331.79723      1778.9744     -1971.0366      567.70007     -2538.7367      320            25           
    117000   307.16531      307.16531      1493.0571     -2026.1261      525.55523     -2551.6813      320            25           
    118000   290.35793      290.35793      1909.7778     -2050.1986      496.79806     -2546.9967      320            25           
    119000   310.27333      310.27333      1393.76       -2027.9391      530.873       -2558.8121      320            25           
    120000   310.09449      310.09449      1647.1401     -2016.3796      530.567       -2546.9466      320            25           
    121000   305.80487      305.80487      1890.3095     -2006.5536      523.22754     -2529.7811      320            25           
    122000   290.69499      290.69499      1510.6828     -2079.7892      497.37476     -2577.1639      320            25           
    123000   284.92091      284.92091      1326.214      -2085.8301      487.4954      -2573.3255      320            25           
    124000   293.35524      293.35524      1318.3951     -2051.7046      501.9264      -2553.631       320            25           
    125000   286.86441      286.86441      2066.465      -2052.8612      490.82069     -2543.6819      320            25           
    126000   313.97046      313.97046      1783.4795     -1990.1591      537.19873     -2527.3578      320            25           
    127000   304.26973      304.26973      1543.7795     -2021.4859      520.60093     -2542.0868      320            25           
    128000   305.92596      305.92596      1956.1121     -2013.7426      523.43471     -2537.1774      320            25           
    129000   317.33311      317.33311      1332.869      -2027.6789      542.95218     -2570.6311      320            25           
    130000   298.79801      298.79801      1537.0021     -2048.4275      511.23891     -2559.6664      320            25           
    131000   310.15969      310.15969      1983.3661     -2009.2754      530.67857     -2539.954       320            25           
    132000   313.97962      313.97962      1714.0612     -1989.4889      537.21441     -2526.7033      320            25           
    133000   302.4835       302.4835       2116.6312     -2011.4519      517.54472     -2528.9966      320            25           
    134000   282.65708      282.65708      1725.1794     -2048.5219      483.62201     -2532.1439      320            25           
    135000   314.42329      314.42329      1804.6352     -1995.9026      537.97352     -2533.8761      320            25           
    136000   319.05254      319.05254      1561.3669     -2015.8198      545.89409     -2561.7139      320            25           
    137000   288.24334      288.24334      1569.2269     -2054.5927      493.18002     -2547.7727      320            25           
    138000   316.14368      316.14368      1995.5864     -1999.3981      540.91709     -2540.3152      320            25           
    139000   291.40892      291.40892      1496.1573     -2063.7906      497.14857     -2560.9392      320            24           
    140000   310.68458      310.68458      1876.0192     -1990.6272      530.03315     -2520.6603      320            24           
    141000   280.12003      280.12003      1211.1148     -2059.0306      477.88953     -2536.9201      320            24           
    142000   299.22011      299.22011      1941.3856     -2027.4586      510.47458     -2537.9332      320            24           
    143000   306.71333      306.71333      1353.111      -2030.0706      523.25814     -2553.3287      320            24           
    144000   292.97412      292.97412      1874.101      -2031.3694      499.81881     -2531.1882      320            24           
    145000   314.5694       314.5694       2245.555      -1975.6974      536.66073     -2512.3581      320            24           
    146000   295.02581      295.02581      1555.6185     -2032.0293      503.31904     -2535.3483      320            24           
    147000   295.03757      295.03757      2073.6441     -1996.8058      503.3391      -2500.1449      320            24           
    148000   322.67402      322.67402      1943.0297     -1976.4625      550.48734     -2526.9498      320            24           
    149000   305.3792       305.3792       1813.0399     -2023.4827      520.98209     -2544.4648      320            24           
    150000   280.00337      280.00337      2196.9701     -2035.808       477.69049     -2513.4985      320            24           
    151000   301.37258      301.37258      1279.6891     -2054.8091      514.14673     -2568.9558      320            24           
    152000   304.35648      304.35648      1572.8469     -2034.4229      519.23731     -2553.6603      320            24           
    153000   300.16506      300.16506      1924.3991     -2020.4047      512.08668     -2532.4913      320            24           
    154000   312.96258      312.96258      1939.4168     -1996.7887      533.91947     -2530.7082      320            24           
    155000   299.12553      299.12553      1519.2715     -2037.1342      510.31322     -2547.4474      320            24           
    156000   306.08027      306.08027      1483.8617     -2017.7283      522.17812     -2539.9064      320            24           
    157000   316.95426      316.95426      1795.2129     -2015.1886      540.72935     -2555.9179      320            24           
    158000   298.65459      298.65459      1507.8682     -2042.0804      509.5098      -2551.5902      320            24           
    159000   293.43598      293.43598      1741.2399     -2035.9713      500.60675     -2536.5781      320            24           
    160000   303.63872      303.63872      1873.4943     -2011.4634      518.0128      -2529.4762      320            24           
    161000   295.63051      295.63051      1401.9974     -2050.8317      504.35066     -2555.1823      320            24           
    162000   301.37932      301.37932      1742.8182     -2038.4606      514.15823     -2552.6188      320            24           
    163000   306.23386      306.23386      1194.5075     -2044.5764      522.44015     -2567.0166      320            24           
    164000   312.86497      312.86497      1335.34       -2034.1198      533.75294     -2567.8727      320            24           
    165000   306.04151      306.04151      1765.0899     -2015.7619      522.11201     -2537.874       320            24           
    166000   303.84942      303.84942      1409.5056     -2046.3261      518.37226     -2564.6983      320            24           
    167000   308.27111      308.27111      2191.211      -2001.8678      524.38425     -2526.252       320            23           
    168000   297.83594      297.83594      1796.688      -2026.7995      506.63351     -2533.433       320            23           
    169000   304.35579      304.35579      1936.0776     -1996.2505      517.72409     -2513.9746      320            23           
    170000   288.18883      288.18883      1523.8751     -2055.2877      490.2233      -2545.511       320            23           
    171000   284.56024      284.56024      2028.8217     -2033.1982      484.05089     -2517.2491      320            23           
    172000   307.7684       307.7684       1421.8052     -2024.379       523.52911     -2547.9081      320            23           
    173000   303.10362      303.10362      1619.5807     -2021.4631      515.59409     -2537.0572      320            23           
    174000   316.0998       316.0998       1535.0377     -1992.3073      537.70122     -2530.0085      320            23           
    175000   304.16252      304.16252      1798.9261     -2013.2983      517.39532     -2530.6936      320            23           
    176000   295.55651      295.55651      943.34403     -2057.6762      502.75609     -2560.4323      320            23           
    177000   297.81746      297.81746      1753.3344     -2034.1167      506.60207     -2540.7188      320            23           
    178000   280.70122      280.70122      1363.3301     -2078.7636      477.48652     -2556.2501      320            23           
    179000   305.81363      305.81363      1666.6649     -2025.6614      520.20395     -2545.8653      320            23           
    180000   297.41619      297.41619      2039.0596     -2019.792       505.9195      -2525.7115      320            23           
    181000   303.7895       303.7895       1441.3423     -2024.3548      516.76081     -2541.1156      320            23           
    182000   305.0354       305.0354       1933.3731     -1996.6646      518.88015     -2515.5448      320            23           
    183000   296.81328      296.81328      1458.6173     -2041.5882      504.89391     -2546.4821      320            23           
    184000   302.86569      302.86569      1608.6829     -2009.3416      515.18936     -2524.531       320            23           
    185000   307.87379      307.87379      1708.2906     -2019.0042      523.70839     -2542.7126      320            23           
    186000   297.3191       297.3191       1643.5994     -2023.8044      505.75433     -2529.5588      320            23           
    187000   304.50308      304.50308      1779.6003     -2018.5509      517.97464     -2536.5255      320            23           
    188000   302.42984      302.42984      1488.6565     -2029.7119      514.44796     -2544.1599      320            23           
    189000   300.12867      300.12867      1550.0846     -2041.8622      510.53356     -2552.3957      320            23           
    190000   316.71405      316.71405      1175.1074     -2007.2045      538.74609     -2545.9506      320            23           
    191000   293.15473      293.15473      1627.5921     -2031.8545      498.67054     -2530.5251      320            23           
    192000   316.20414      316.20414      1431.5349     -1992.0392      537.87872     -2529.9179      320            23           
    193000   292.41604      292.41604      1780.9044     -1988.5148      497.41399     -2485.9288      320            23           
    194000   285.11688      285.11688      1895.7709     -2027.1323      484.99777     -2512.1301      320            23           
    195000   307.12781      307.12781      1933.7895     -2000.2676      522.43944     -2522.7071      320            23           
    196000   313.61831      313.61831      1932.0758     -1983.0562      533.4801      -2516.5363      320            23           
    197000   299.91724      299.91724      1617.0768     -2017.2344      510.17391     -2527.4083      320            23           
    198000   296.19172      296.19172      2407.6362     -1972.965       503.83661     -2476.8016      320            23           
    199000   297.56713      297.56713      1606.7683     -2013.6856      506.17626     -2519.8619      320            23           
    200000   277.5505       277.5505       1501.3276     -2044.9666      472.12698     -2517.0936      320            23           
    201000   310.10565      310.10565      2249.5        -1986.2325      527.50488     -2513.7374      320            23           
    202000   285.65359      285.65359      2037.9349     -2040.6051      485.91074     -2526.5159      320            23           
    203000   296.1453       296.1453       2140.8911     -2048.6283      503.75764     -2552.386       320            23           
    204000   313.03641      313.03641      1686.8126     -1976.5833      532.49025     -2509.0735      320            23           
    205000   287.8427       287.8427       1462.9068     -2035.4091      489.63452     -2525.0436      320            23           
    206000   304.61189      304.61189      1547.7717     -1999.0573      518.15974     -2517.2171      320            23           
    207000   290.29518      290.29518      1458.9586     -2038.2397      492.36411     -2530.6038      320            22           
    208000   289.44567      289.44567      1047.9737     -2045.8231      490.92327     -2536.7464      320            22           
    209000   308.1692       308.1692       1387.8802     -2014.8285      522.67991     -2537.5084      320            22           
    210000   333.07605      333.07605      1681.8699     -1935.503       564.92392     -2500.4269      320            22           
    211000   310.7323       310.7323       1529.1894     -2006.4116      527.02712     -2533.4387      320            22           
    212000   295.11845      295.11845      1028.7439     -2037.0785      500.54477     -2537.6233      320            22           
    213000   298.67885      298.67885      1153.6907     -2029.8014      506.58351     -2536.3849      320            22           
    214000   281.46501      281.46501      1442.103      -2036.3923      477.38744     -2513.7797      320            22           
    215000   305.48739      305.48739      1815.1289     -2004.2034      518.13133     -2522.3347      320            22           
    216000   306.18668      306.18668      1350.6569     -1996.5725      519.31739     -2515.8899      320            22           
    217000   288.22702      288.22702      1874.5412     -2026.4122      488.85635     -2515.2685      320            22           
    218000   290.59917      290.59917      1153.0669     -2040.9026      492.87971     -2533.7823      320            22           
    219000   296.76737      296.76737      1596.0971     -2009.2824      503.34147     -2512.6238      320            22           
    220000   298.12201      298.12201      1572.1        -2009.4199      505.63905     -2515.059       320            22           
    221000   318.40497      318.40497      1637.8205     -1997.7895      540.04059     -2537.8301      320            22           
    222000   290.85599      290.85599      1448.5749     -2035.302       493.31529     -2528.6173      320            22           
    223000   300.41159      300.41159      1796.528      -2019.6279      509.52237     -2529.1502      320            22           
    224000   302.85672      302.85672      1430.8537     -2016.7324      513.66951     -2530.4019      320            22           
    225000   301.26516      301.26516      1914.7317     -1992.0681      510.97009     -2503.0382      320            22           
    226000   306.64903      306.64903      1689.5543     -2006.4312      520.10157     -2526.5328      320            22           
    227000   304.56521      304.56521      1790.0146     -1983.5474      516.56725     -2500.1146      320            22           
    228000   324.70975      324.70975      1598.5676     -1956.3783      550.73402     -2507.1123      320            22           
    229000   288.04044      288.04044      1820.4924     -2036.3168      488.5399      -2524.8567      320            22           
    230000   300.59807      300.59807      2158.8901     -2009.3591      509.83866     -2519.1978      320            22           
    231000   309.31315      309.31315      1589.8639     -1993.6501      524.62013     -2518.2703      320            22           
    232000   306.45619      306.45619      1534.8512     -2005.9832      519.77449     -2525.7577      320            22           
    233000   273.09718      273.09718      713.89308     -2061.5078      461.83817     -2523.346       320            21           
    234000   310.51633      310.51633      1382.9857     -1996.7813      525.11817     -2521.8994      320            21           
    235000   301.70638      301.70638      1420.9935     -2000.5782      510.21955     -2510.7977      320            21           
    236000   292.17431      292.17431      1635.3403     -2046.6327      494.09975     -2540.7325      320            21           
    237000   313.35448      313.35448      1513.793      -2004.781       529.9178      -2534.6988      320            21           
    238000   290.30292      290.30292      1610.384      -2031.5649      490.93501     -2522.4999      320            21           
    239000   313.78025      313.78025      1802.4314     -1973.1589      530.63782     -2503.7967      320            21           
    240000   280.20133      280.20133      1569.3496     -2027.4254      473.85209     -2501.2775      320            21           
    241000   305.4197       305.4197       1723.3707     -1998.3489      516.4992      -2514.8481      320            21           
    242000   294.98358      294.98358      836.91274     -2046.9865      498.85053     -2545.837       320            21           
    243000   308.77347      308.77347      1654.8604     -1967.1688      520.6368      -2487.8056      320            20           
    244000   313.66552      313.66552      1533.4818     -1975.5221      528.88551     -2504.4076      320            20           
    245000   325.4122       325.4122       1246.9726     -1979.8759      548.69211     -2528.568       320            20           
    246000   286.82051      286.82051      1604.6396     -2027.6835      483.62094     -2511.3045      320            20           
    247000   321.93604      321.93604      1115.4207     -1983.1366      542.8308      -2525.9674      320            20           
    248000   294.82204      294.82204      1858.8756     -1998.689       497.11267     -2495.8017      320            20           
    249000   295.1414       295.1414       1280.1868     -2026.7314      497.65116     -2524.3826      320            20           
    250000   306.22321      306.22321      1429.5449     -2018.3994      516.33671     -2534.7361      320            20           
    251000   295.78034      295.78034      1581.3955     -2019.8124      498.72851     -2518.5409      320            20           
    252000   307.21774      307.21774      1440.8112     -1991.3933      518.01363     -2509.407       320            20           
    253000   308.01536      308.01536      1500.9456     -1995.7691      519.35852     -2515.1276      320            20           
    254000   291.29087      291.29087      1597.2361     -2003.0264      491.15861     -2494.185       320            20           
    255000   306.0414       306.0414       1198.9061     -2011.949       516.03015     -2527.9791      320            20           
    256000   287.44135      287.44135      1345.9579     -2044.127       484.66777     -2528.7947      320            20           
    257000   300.18432      300.18432      1411.8636     -2004.6621      506.15426     -2510.8164      320            20           
    258000   309.32251      309.32251      1723.7867     -1992.4354      521.56257     -2513.998       320            20           
    259000   302.78657      302.78657      1267.531      -2025.22        510.54203     -2535.762       320            20           
    260000   298.52033      298.52033      1607.0773     -2000.8138      503.34852     -2504.1623      320            20           
    261000   300.61956      300.61956      1088.0914     -2018.5372      505.39465     -2523.9318      319            20           
    262000   294.4587       294.4587       1605.3731     -1995.5278      495.03716     -2490.5649      319            20           
    263000   301.40199      301.40199      1303.9402     -2010.6082      506.71006     -2517.3183      319            20           
    264000   298.95519      298.95519      1116.4194     -2008.8652      502.59654     -2511.4618      319            20           
    265000   299.9092       299.9092       1286.4439     -2003.9826      504.20041     -2508.183       319            20           
    266000   324.12906      324.12906      1125.6217     -1973.5224      544.91828     -2518.4407      319            20           
    267000   291.92822      291.92822      1765.5002     -1988.9005      490.78297     -2479.6834      319            20           
    268000   304.40215      304.40215      1673.9775     -1994.7744      511.75385     -2506.5283      319            20           
    269000   296.34346      296.34346      1383.8888     -2008.6113      498.20577     -2506.8171      319            20           
    270000   296.43614      296.43614      1117.9076     -2026.0835      498.36158     -2524.445       319            20           
    271000   308.41772      308.41772      1189.6544     -1989.5424      518.50474     -2508.0471      319            20           
    272000   299.28102      299.28102      1433.2463     -1982.898       503.14433     -2486.0424      319            20           
    273000   307.26879      307.26879      1798.0017     -1975.3273      516.57318     -2491.9005      319            20           
    274000   297.21508      297.21508      1402.2702     -2006.8843      499.67112     -2506.5554      319            20           
    275000   314.30092      314.30092      1448.0721     -1962.9538      528.39543     -2491.3492      319            20           
    276000   286.14624      286.14624      1581.7081     -1995.133       481.06243     -2476.1954      319            20           
    277000   296.76813      296.76813      1067.8217     -2021.0157      498.91971     -2519.9354      319            20           
    278000   314.48599      314.48599      1274.3261     -1970.668       528.70656     -2499.3746      319            20           
    279000   309.43301      309.43301      1554.879      -1999.2447      520.21162     -2519.4564      319            20           
    280000   288.37668      288.37668      1434.7815     -2021.116       484.81221     -2505.9282      319            20           
    281000   292.72429      292.72429      1021.0107     -2021.4864      492.12131     -2513.6077      319            20           
    282000   276.16438      276.16438      1315.8339     -2044.0651      464.28117     -2508.3463      319            20           
    283000   303.80053      303.80053      1337.7773     -2000.9898      510.74243     -2511.7322      319            20           
    284000   302.87131      302.87131      1359.8991     -2007.866       509.18024     -2517.0462      319            20           
    285000   294.97563      294.97563      1670.6005     -1999.485       495.90621     -2495.3912      319            20           
    286000   296.97902      296.97902      1409.5485     -2009.9599      499.27425     -2509.2342      319            20           
    287000   299.92755      299.92755      1712.0438     -1969.7592      504.23126     -2473.9904      319            20           
    288000   298.74815      298.74815      1537.1163     -1990.4536      502.24849     -2492.7021      319            20           
    289000   294.11651      294.11651      1360.0297     -2007.5258      494.46188     -2501.9877      319            20           
    290000   292.85487      292.85487      1614.9316     -1999.7403      492.34083     -2492.0811      319            20           
    291000   282.81126      282.81126      1146.8735     -1992.3155      475.45575     -2467.7713      319            20           
    292000   295.39464      295.39464      1372.7257     -1994.5026      496.61064     -2491.1132      319            20           
    293000   294.9824       294.9824       861.17779     -2008.5004      495.91758     -2504.4179      319            20           
    294000   308.54966      308.54966      1186.3149     -1985.3778      518.72655     -2504.1043      319            20           
    295000   289.3874       289.3874       994.61939     -2011.0057      486.51141     -2497.5171      319            20           
    296000   292.8351       292.8351       2088.1643     -1979.5067      492.3076      -2471.8143      319            20           
    297000   302.37694      302.37694      1332.522      -1988.2597      508.34911     -2496.6088      319            20           
    298000   307.41265      307.41265      1829.3572     -1948.2421      516.81504     -2465.0572      319            20           
    299000   295.71911      295.71911      1478.2197     -1982.7167      497.15613     -2479.8728      319            20           
    300000   287.82988      287.82988      1626.2391     -2018.4886      483.89294     -2502.3815      319            20           
    301000   286.4892       286.4892       1385.372      -2004.659       481.63902     -2486.298       319            20           
    302000   305.65372      305.65372      1401.4344     -1967.0585      513.85796     -2480.9165      319            20           
    303000   300.87008      300.87008      1262.7394     -2002.749       505.81582     -2508.5649      319            20           
    304000   317.15735      317.15735      1161.7686     -1991.3034      533.1976      -2524.501       319            20           
    305000   280.42202      280.42202      1477.0219     -2049.6833      471.43901     -2521.1223      319            20           
    306000   277.35129      277.35129      904.7616      -2075.1773      466.27658     -2541.4539      319            20           
    307000   293.65577      293.65577      1614.6475     -2004.2062      493.68728     -2497.8935      319            20           
    308000   274.00311      274.00311      1044.2172     -2050.851       460.64769     -2511.4986      319            20           
    309000   312.68551      312.68551      1562.8174     -1972.8185      525.67965     -2498.4982      319            20           
    310000   290.03807      290.03807      1718.7854     -1995.1157      487.60529     -2482.721       319            20           
    311000   302.08143      302.08143      1731.8751     -1975.2256      507.85232     -2483.0779      319            20           
    312000   301.025        301.025        1493.5338     -1995.9298      506.07626     -2502.006       319            20           
    313000   289.17318      289.17318      1077.8391     -2021.1938      486.15126     -2507.3451      319            20           
    314000   282.95599      282.95599      1407.7901     -2006.8317      475.69907     -2482.5308      319            20           
    315000   301.97866      301.97866      1492.656      -1967.9393      506.17931     -2474.1186      319            19           
    316000   293.78182      293.78182      1186.458      -2009.2061      490.98017     -2500.1863      319            18           
    317000   287.35127      287.35127      1509.8728     -2024.3307      480.23317     -2504.5639      319            18           
    318000   302.04325      302.04325      1087.9343     -2006.477       506.28756     -2512.7646      319            19           
    319000   296.35343      296.35343      1466.5998     -1986.1547      496.75024     -2482.9049      319            19           
    320000   306.55398      306.55398      1420.3106     -1976.7247      513.8485      -2490.5732      319            19           
    321000   301.60541      301.60541      1540.9711     -1977.9319      505.55366     -2483.4856      319            19           
    322000   300.31162      300.31162      1597.9145     -1979.253       503.38499     -2482.638       319            19           
    323000   302.36441      302.36441      1273.7541     -1995.3058      506.8259      -2502.1317      319            19           
    324000   303.12915      303.12915      1299.525      -2002.8617      508.10777     -2510.9694      319            19           
    325000   313.99413      313.99413      1521.4423     -1967.2007      526.31974     -2493.5205      319            19           
    326000   285.37143      285.37143      1327.396      -2027.9139      478.34212     -2506.2561      319            19           
    327000   303.60779      303.60779      1369.1814     -1977.7489      508.91006     -2486.6589      319            19           
    328000   284.76733      284.76733      1281.9016     -2033.1247      477.32953     -2510.4542      319            19           
    329000   314.57107      314.57107      1376.2168     -1973.295       527.28681     -2500.5818      319            19           
    330000   310.95671      310.95671      795.84538     -2006.2472      521.22839     -2527.4756      319            19           
    331000   304.76915      304.76915      1265.6744     -1994.9497      510.85675     -2505.8065      319            19           
    332000   285.22214      285.22214      1378.5566     -1996.0012      478.09188     -2474.0931      319            19           
    333000   305.95808      305.95808      1118.7657     -1970.4896      512.84965     -2483.3392      319            19           
    334000   311.58569      311.58569      869.58643     -1979.9589      522.2827      -2502.2416      319            19           
    335000   316.87474      316.87474      991.65887     -1989.364       531.14824     -2520.5122      319            19           
    336000   304.9687       304.9687       832.74784     -1991.9118      511.19124     -2503.103       319            19           
    337000   300.36507      300.36507      1663.8288     -1989.1923      503.47458     -2492.6668      319            19           
    338000   279.4905       279.4905       1334.4727     -2016.9766      468.48445     -2485.4611      319            19           
    339000   296.77687      296.77687      1606.6448     -1983.5395      497.46002     -2480.9995      319            19           
    340000   301.69365      301.69365      1537.8519     -2001.3798      505.70156     -2507.0814      319            19           
    341000   331.82724      331.82724      1447.34       -1938.9801      556.21176     -2495.1919      319            19           
    342000   318.39513      318.39513      1376.9974     -1954.9765      533.69673     -2488.6733      319            19           
    343000   298.34332      298.34332      1540.2296     -2006.8921      500.08571     -2506.9778      319            19           
    344000   294.41198      294.41198      1396.4525     -2002.7975      493.49596     -2496.2935      319            19           
    345000   310.33899      310.33899      1240.2358     -1983.8091      520.19296     -2504.002       319            19           
    346000   290.11147      290.11147      1502.9711     -2009.9189      486.28741     -2496.2063      319            19           
    347000   315.02134      315.02134      1203.8753     -1994.5008      528.04156     -2522.5423      319            19           
    348000   303.15193      303.15193      1577.4721     -1992.3596      508.14594     -2500.5055      319            19           
    349000   286.8129       286.8129       1506.8395     -2043.1618      480.75832     -2523.9201      319            19           
    350000   314.78603      314.78603      1529.3677     -1977.7845      527.64712     -2505.4316      319            19           
    351000   279.99512      279.99512      1680.1621     -2026.002       469.33031     -2495.3323      319            19           
    352000   301.37594      301.37594      1426.0955     -1981.4822      505.16902     -2486.6512      319            19           
    353000   305.68151      305.68151      955.20279     -2003.3719      510.86742     -2514.2393      319            18           
    354000   309.24511      309.24511      1014.67       -1997.7412      516.82306     -2514.5642      319            18           
    355000   288.98717      288.98717      1048.8166     -2012.7087      482.96716     -2495.6758      319            18           
    356000   289.61232      289.61232      1574.1902     -1990.7681      484.01193     -2474.78        319            18           
    357000   273.32147      273.32147      1085.4446     -2066.5098      456.78601     -2523.2958      319            18           
    358000   299.06168      299.06168      1701.9531     -1970.6502      499.8041      -2470.4543      319            18           
    359000   290.3429       290.3429       1618.5854     -1998.1638      485.23291     -2483.3967      319            18           
    360000   296.16258      296.16258      1255.9641     -1985.9464      494.95899     -2480.9054      319            18           
    361000   307.35051      307.35051      1413.7937     -1951.7936      513.65672     -2465.4503      319            18           
    362000   294.68446      294.68446      1060.8591     -1991.1058      492.48871     -2483.5945      319            18           
    363000   307.87027      307.87027      1327.0085     -1978.6734      514.52537     -2493.1987      319            18           
    364000   296.3144       296.3144       1475.9941     -1986.9842      495.21273     -2482.1969      319            18           
    365000   289.70961      289.70961      875.22144     -2019.294       484.17454     -2503.4686      319            18           
    366000   307.9678       307.9678       1161.0644     -1981.9203      514.68837     -2496.6087      319            18           
    367000   278.97337      278.97337      1243.319      -2009.0252      466.23169     -2475.2569      319            18           
    368000   289.55052      289.55052      1197.0644     -2003.1979      482.47017     -2485.6681      319            17           
    369000   295.64021      295.64021      1480.5616     -1986.5905      492.61725     -2479.2077      319            17           
    370000   303.13214      303.13214      1233.6382     -1964.9675      505.10084     -2470.0683      319            17           
    371000   303.31194      303.31194      1798.9136     -1981.125       505.40044     -2486.5255      319            17           
    372000   298.13149      298.13149      1250.4958     -1986.7898      496.7684      -2483.5582      319            17           
    373000   278.45295      278.45295      1139.7148     -2012.763       463.97858     -2476.7416      319            17           
    374000   298.87406      298.87406      1374.8709     -1966.1886      498.00572     -2464.1943      319            17           
    375000   302.16252      302.16252      1080.4546     -1981.2773      503.48519     -2484.7625      319            17           
    376000   285.70736      285.70736      1512.8972     -2012.5589      476.0664      -2488.6253      319            17           
    377000   290.06592      290.06592      1282.2988     -1977.9349      483.32896     -2461.2639      319            17           
    378000   293.25537      293.25537      1030.4538     -1968.9485      487.18656     -2456.1351      318            17           
    379000   311.15779      311.15779      1476.2848     -1953.8937      516.92792     -2470.8216      318            17           
    380000   303.74178      303.74178      1121.3288     -1966.0147      504.60767     -2470.6224      318            17           
    381000   293.77093      293.77093      698.70968     -2009.6777      488.04305     -2497.7208      318            17           
    382000   312.56913      312.56913      1404.2991     -1955.2087      519.2726      -2474.4813      318            17           
    383000   294.16901      294.16901      1013.4461     -1979.6161      488.70439     -2468.3204      318            17           
    384000   301.10006      301.10006      1655.9756     -1959.2008      500.21897     -2459.4197      318            17           
    385000   310.22908      310.22908      903.8043      -1974.4992      515.38506     -2489.8843      318            17           
    386000   307.00517      307.00517      891.76968     -1994.7377      510.02917     -2504.7669      318            17           
    387000   306.22557      306.22557      1396.0587     -1947.965       508.73401     -2456.699       318            17           
    388000   309.59831      309.59831      840.03128     -1986.6904      514.33715     -2501.0276      318            17           
    389000   307.06622      307.06622      1000.6029     -1962.2499      510.13059     -2472.3805      318            17           
    390000   302.58293      302.58293      1302.0863     -1960.1661      502.68248     -2462.8486      318            17           
    391000   315.62461      315.62461      1222.6015     -1930.8349      524.34868     -2455.1835      318            17           
    392000   292.459        292.459        1395.1022     -1979.5711      485.86354     -2465.4346      318            17           
    393000   316.67959      316.67959      1339.4984     -1936.1079      526.10133     -2462.2093      318            17           
    394000   315.21117      315.21117      1180.3953     -1946.6384      523.66182     -2470.3003      318            17           
    395000   303.93116      303.93116      1275.8474     -1944.8846      504.92229     -2449.8069      318            17           
    396000   305.56816      305.56816      1169.2194     -1957.8333      507.64185     -2465.4752      318            17           
    397000   313.14328      313.14328      727.12102     -1960.8016      520.22644     -2481.0281      318            17           
    398000   312.84087      312.84087      1426.8649     -1965.4449      519.72403     -2485.169       318            17           
    399000   275.382        275.382        966.32886     -2019.4775      457.49344     -2476.9709      318            17           
    400000   309.2922       309.2922       1483.627      -1948.2693      513.82861     -2462.0979      318            17           
    401000   304.49504      304.49504      1474.5122     -1969.7205      505.85908     -2475.5796      318            17           
    402000   295.06521      295.06521      1428.1956     -1959.4857      490.19326     -2449.679       318            17           
    403000   304.78292      304.78292      782.81251     -1969.742       506.33733     -2476.0793      318            17           
    404000   290.98397      290.98397      1089.4203     -1987.1987      483.41307     -2470.6117      318            17           
    405000   307.65008      307.65008      1265.4131     -1943.1861      511.10056     -2454.2866      318            17           
    406000   302.59946      302.59946      944.07106     -1977.5542      502.70993     -2480.2641      318            17           
    407000   300.53113      300.53113      1255.4449     -1978.4922      499.27382     -2477.766       318            17           
    408000   297.53459      297.53459      1219.1851     -1993.9924      494.29564     -2488.288       318            17           
    409000   290.57884      290.57884      1103.2076     -2022.9023      482.74003     -2505.6423      318            17           
    410000   299.12082      299.12082      1129.7159     -1993.3014      496.93085     -2490.2323      318            17           
    411000   303.28018      303.28018      885.35512     -1983.1737      503.84083     -2487.0145      318            17           
    412000   307.66137      307.66137      1031.4191     -1964.5676      511.11931     -2475.6869      318            17           
    413000   309.4061       309.4061       1291.6725     -1945.9019      514.01785     -2459.9197      318            17           
    414000   287.04613      287.04613      1201.2672     -2010.7899      476.87111     -2487.661       318            17           
    415000   289.51949      289.51949      1027.9269     -2020.8619      480.98012     -2501.842       318            17           
    416000   301.23117      301.23117      1083.1537     -1969.1184      500.43679     -2469.5552      318            17           
    417000   303.75989      303.75989      1451.1541     -1958.1587      504.63776     -2462.7965      318            17           
    418000   300.34155      300.34155      1060.9519     -1981.3955      498.95886     -2480.3544      318            17           
    419000   310.44648      310.44648      1455.8237     -1946.4158      515.74622     -2462.162       318            17           
    420000   298.46984      298.46984      1360.8553     -1961.2054      495.84938     -2457.0548      318            17           
    421000   289.79691      289.79691      1408.2022     -1974.4713      481.44101     -2455.9123      318            17           
    422000   306.04573      306.04573      1049.1787     -1985.8276      508.43525     -2494.2628      318            17           
    423000   286.47879      286.47879      1517.2836     -1970.3698      475.92859     -2446.2984      318            17           
    424000   280.69535      280.69535      1249.5737     -2005.0182      466.32054     -2471.3387      318            17           
    425000   281.65091      281.65091      1691.1589     -1955.1063      467.90801     -2423.0143      318            17           
    426000   302.72915      302.72915      1781.0103     -1922.3303      502.92538     -2425.2557      318            17           
    427000   298.22268      298.22268      1165.2968     -1956.1777      495.43877     -2451.6165      318            17           
    428000   304.80695      304.80695      1402.9576     -1949.0746      506.37724     -2455.4518      318            17           
    429000   294.00529      294.00529      1122.3513     -1980.7275      488.4324      -2469.1599      318            17           
    430000   297.65511      297.65511      1184.6721     -1962.9856      494.49586     -2457.4815      318            17           
    431000   317.11391      317.11391      1496.3415     -1925.3941      526.82286     -2452.2169      318            17           
    432000   309.59225      309.59225      1501.2506     -1936.6428      514.3271      -2450.9699      318            17           
    433000   316.774        316.774        969.43292     -1947.3273      526.25816     -2473.5855      318            17           
    434000   296.97054      296.97054      1063.6483     -1969.7279      493.35859     -2463.0865      318            17           
    435000   294.47482      294.47482      1300.0649     -1982.0934      489.21243     -2471.3058      318            17           
    436000   310.93382      310.93382      1075.6327     -1961.9035      518.10057     -2480.004       318            18           
    437000   296.46996      296.46996      1119.9211     -1969.123       493.99984     -2463.1229      318            18           
    438000   301.80432      301.80432      1208.7021     -1992.961       502.88833     -2495.8494      318            18           
    439000   295.40493      295.40493      922.39614     -1986.2828      492.22521     -2478.508       318            18           
    440000   300.2979       300.2979       1281.4808     -1983.0509      500.37823     -2483.4291      318            18           
    441000   324.69163      324.69163      1057.73       -1953.7867      541.02484     -2494.8116      318            18           
    442000   282.8099       282.8099       1350.7886     -2004.9065      471.23845     -2476.145       318            18           
    443000   306.23192      306.23192      1277.4085     -1956.3837      510.26592     -2466.6496      318            18           
    444000   295.18725      295.18725      855.76751     -2013.0236      491.86249     -2504.8861      318            18           
    445000   298.57839      298.57839      901.52475     -1980.0014      497.51306     -2477.5145      318            18           
    446000   325.56281      325.56281      1223.6733     -1939.0652      542.47646     -2481.5416      318            18           
    447000   314.79777      314.79777      1267.5203     -1968.5569      524.53897     -2493.0959      318            18           
    448000   300.2969       300.2969       1215.9195     -1991.4722      500.37656     -2491.8487      318            18           
    449000   305.33608      305.33608      797.79363     -1973.1144      508.77321     -2481.8876      318            18           
    450000   298.4019       298.4019       1449.0942     -1963.3308      497.21897     -2460.5498      318            18           
    451000   289.29308      289.29308      1610.8684     -1965.97        482.0412      -2448.0112      318            18           
    452000   302.45089      302.45089      1425.4508     -1959.1509      503.96569     -2463.1166      318            18           
    453000   305.8086       305.8086       1421.2363     -1962.8068      509.56056     -2472.3673      318            18           
    454000   295.43364      295.43364      474.14433     -2011.9219      492.27304     -2504.1949      318            18           
    455000   294.20541      294.20541      1553.442      -1978.2993      490.22647     -2468.5257      318            18           
    456000   315.9994       315.9994       1664.6579     -1934.917       526.54121     -2461.4582      318            18           
    457000   314.5725       314.5725       1675.0513     -1915.1478      524.16361     -2439.3114      318            18           
    458000   304.55335      304.55335      969.9226      -1972.2647      507.46897     -2479.7337      318            18           
    459000   306.54521      306.54521      873.70008     -1988.2145      510.78795     -2499.0025      318            18           
    460000   293.17486      293.17486      1047.7928     -1974.4578      488.5093      -2462.9671      318            18           
    461000   301.88361      301.88361      982.86867     -1981.9364      503.02046     -2484.9569      318            18           
    462000   326.36965      326.36965      1141.5679     -1926.0876      543.82088     -2469.9085      318            18           
    463000   303.48259      303.48259      1600.8915     -1943.1801      505.6848      -2448.8649      318            18           
    464000   281.54332      281.54332      865.71992     -2010.9108      469.12797     -2480.0388      318            18           
    465000   312.35628      312.35628      1375.3483     -1930.1808      520.47078     -2450.6516      318            18           
    466000   300.75095      300.75095      1118.6169     -1982.592       501.13313     -2483.7252      318            18           
    467000   312.54403      312.54403      1392.7728     -1970.4879      520.78361     -2491.2715      318            18           
    468000   283.44955      283.44955      1453.8946     -2000.3409      472.30428     -2472.6452      318            18           
    469000   304.50564      304.50564      1445.2553     -1948.6813      507.38948     -2456.0707      318            18           
    470000   297.62343      297.62343      1666.8894     -1959.3118      495.92183     -2455.2336      318            18           
    471000   305.08985      305.08985      1200.4337     -1954.4351      508.36293     -2462.798       318            18           
    472000   306.89499      306.89499      1127.5097     -1971.8442      511.37078     -2483.2149      318            18           
    473000   286.7716       286.7716       1352.4764     -1985.4201      477.83972     -2463.2598      318            18           
    474000   315.43468      315.43468      1329.9436     -1932.8386      525.60023     -2458.4389      318            18           
    475000   303.71579      303.71579      1088.8867     -1942.5122      506.07336     -2448.5856      318            18           
    476000   298.03884      298.03884      1068.1405     -1985.9691      496.61402     -2482.5831      318            18           
    477000   292.40611      292.40611      1171.2725     -2000.1241      488.68102     -2488.8051      318            19           
    478000   291.69832      291.69832      1490.6913     -1993.0751      487.49814     -2480.5732      318            19           
    479000   279.04382      279.04382      1156.1719     -2006.9162      466.34942     -2473.2656      318            19           
    480000   303.64493      303.64493      928.24594     -1977.5198      507.4638      -2484.9836      318            19           
    481000   289.06003      289.06003      1568.9167     -1996.0321      483.08892     -2479.1211      318            19           
    482000   291.15271      291.15271      1130.4432     -2009.3934      486.5863      -2495.9797      318            19           
    483000   294.14862      294.14862      1382.0247     -1977.1011      491.59318     -2468.6943      318            19           
    484000   308.25184      308.25184      1071.906      -1965.6803      515.16307     -2480.8433      318            19           
    485000   286.36069      286.36069      1424.4295     -1993.7444      478.57768     -2472.3221      318            19           
    486000   319.57945      319.57945      1773.4501     -1912.7815      534.09423     -2446.8758      318            19           
    487000   295.11763      295.11763      1519.8746     -1966.0594      493.21263     -2459.2721      318            19           
    488000   310.54053      310.54053      1536.2685     -1926.2932      518.98801     -2445.2812      318            19           
    489000   305.41218      305.41218      910.02956     -1990.7376      510.4173      -2501.1549      318            19           
    490000   299.32962      299.32962      1377.7005     -1976.4808      500.25188     -2476.7327      318            19           
    491000   280.79917      280.79917      1486.7735     -2002.2337      469.28304     -2471.5168      318            19           
    492000   305.9643       305.9643       1794.1118     -1952.5799      511.34003     -2463.9199      318            19           
    493000   302.17985      302.17985      524.98556     -2010.568       505.0153      -2515.5833      318            19           
    494000   297.73143      297.73143      1717.6815     -1940.9541      497.58092     -2438.5351      318            19           
    495000   307.46693      307.46693      1669.5463     -1950.5216      513.85129     -2464.3729      318            19           
    496000   302.02947      302.02947      1646.3388     -1967.227       504.76399     -2471.991       318            19           
    497000   288.03737      288.03737      1350.6105     -1981.5615      481.37981     -2462.9413      318            19           
    498000   292.35192      292.35192      1235.5107     -1988.2577      488.59046     -2476.8481      318            19           
    499000   284.48413      284.48413      1160.2853     -2030.8244      475.44149     -2506.2659      318            19           
    500000   302.99444      302.99444      1373.8118     -1973.7268      506.37668     -2480.1034      318            19           
    501000   292.96207      292.96207      1445.3788     -1997.3828      489.61018     -2486.993       318            19           
    502000   291.01436      291.01436      996.72706     -1997.358       486.35509     -2483.7131      318            19           
    503000   275.54579      275.54579      1371.8549     -2010.3928      460.50338     -2470.8962      318            19           
    504000   308.36073      308.36073      1453.9196     -1928.1563      513.8131      -2441.9694      317            19           
    505000   294.93057      294.93057      1788.901      -1962.1346      491.43478     -2453.5694      317            19           
    506000   296.29605      296.29605      1301.1078     -1975.1338      493.71005     -2468.8438      317            19           
    507000   310.38941      310.38941      1164.1841     -1990.6755      517.19344     -2507.8689      317            19           
    508000   309.30583      309.30583      1206.0706     -1973.1929      515.3879      -2488.5808      317            19           
    509000   292.2061       292.2061       1158.4896     -1978.4542      486.89509     -2465.3492      317            19           
    510000   302.50033      302.50033      1389.3951     -1952.7001      504.04808     -2456.7482      317            19           
    511000   302.57948      302.57948      1462.3123     -1933.4512      504.17996     -2437.6311      317            19           
    512000   306.48018      306.48018      1071.6532     -1978.9544      510.67959     -2489.634       317            19           
    513000   304.89157      304.89157      1768.3212     -1932.2508      508.03253     -2440.2833      317            19           
    514000   311.1117       311.1117       1225.4242     -1948.2872      518.39696     -2466.6842      317            19           
    515000   299.15042      299.15042      1060.7501     -1984.7235      498.46621     -2483.1897      317            19           
    516000   305.84513      305.84513      1174.1342     -1956.2604      509.62143     -2465.8818      317            19           
    517000   291.16103      291.16103      652.35558     -1987.1345      485.1537      -2472.2882      317            19           
    518000   296.18204      296.18204      1300.7867     -1970.8567      493.52008     -2464.3768      317            19           
    519000   299.03796      299.03796      1131.4604     -1980.8763      498.27882     -2479.1551      317            19           
    520000   309.50543      309.50543      975.62943     -1979.3629      515.72048     -2495.0834      317            19           
    521000   311.07646      311.07646      1259.8339     -1951.8655      518.33824     -2470.2037      317            19           
    522000   296.61085      296.61085      1152.1292     -1974.2135      494.2346      -2468.4481      317            19           
    523000   303.00027      303.00027      1179.5765     -1981.9742      504.88111     -2486.8553      317            19           
    524000   296.12124      296.12124      1699.3684     -1946.9497      493.41878     -2440.3685      317            19           
    525000   296.65787      296.65787      1148.8122     -1998.2902      494.31295     -2492.6031      317            19           
    526000   293.64804      293.64804      1239.4933     -1992.5266      489.29774     -2481.8244      317            19           
    527000   303.39063      303.39063      1465.5411     -1987.4113      505.53157     -2492.9429      317            19           
    528000   299.95678      299.95678      1284.838      -1989.6888      499.80983     -2489.4986      317            19           
    529000   285.56161      285.56161      1306.1217     -1992.9392      475.82355     -2468.7627      317            19           
    530000   314.94861      314.94861      1371.4943     -1934.6038      524.79031     -2459.3941      317            19           
    531000   317.10884      317.10884      1143.5981     -1924.4093      528.38984     -2452.7991      317            19           
    532000   301.14072      301.14072      1532.4754     -1964.1415      501.78259     -2465.9241      317            19           
    533000   300.08134      300.08134      1078.8764     -1977.4478      500.01738     -2477.4652      317            19           
    534000   302.35732      302.35732      1811.8993     -1940.843       503.80978     -2444.6527      317            19           
    535000   293.86237      293.86237      1105.153      -2006.8083      489.65488     -2496.4632      317            19           
    536000   296.98634      296.98634      1481.9509     -1973.6261      494.86026     -2468.4864      317            19           
    537000   288.6461       288.6461       958.62043     -1991.0359      480.96315     -2471.999       317            19           
    538000   314.94627      314.94627      1395.561      -1926.4984      524.7864      -2451.2848      317            19           
    539000   301.38214      301.38214      1533.3951     -1962.303       502.18487     -2464.4879      317            19           
    540000   304.21937      304.21937      1174.3216     -1977.4531      506.91247     -2484.3655      317            19           
    541000   293.71607      293.71607      1340.5925     -1980.9892      489.4111      -2470.4003      317            19           
    542000   295.85622      295.85622      836.10117     -1990.8019      492.97717     -2483.779       317            19           
    543000   293.83707      293.83707      1472.3522     -1982.8407      489.61273     -2472.4534      317            19           
    544000   307.74381      307.74381      1089.7591     -1945.6023      512.78514     -2458.3875      317            19           
    545000   292.30627      292.30627      1281.8424     -1975.3251      487.06199     -2462.387       317            19           
    546000   303.08397      303.08397      1785.2419     -1924.2713      505.02058     -2429.2919      317            19           
    547000   299.74302      299.74302      1206.4987     -1986.5838      499.45364     -2486.0375      317            19           
    548000   292.53682      292.53682      1654.55       -1976.117       487.44615     -2463.5632      317            19           
    549000   295.84891      295.84891      1093.7656     -1980.2295      492.965       -2473.1945      317            19           
    550000   287.22127      287.22127      1241.4066     -1983.642       478.589       -2462.231       317            19           
    551000   316.98569      316.98569      1129.5432     -1960.6696      528.18464     -2488.8542      317            19           
    552000   295.76612      295.76612      1564.4544     -1963.2903      492.82704     -2456.1174      317            19           
    553000   296.45548      296.45548      1466.819      -1976.6608      493.97571     -2470.6365      317            19           
    554000   311.98996      311.98996      1459.8548     -1930.5843      519.8604      -2450.4447      317            19           
    555000   307.82011      307.82011      1042.7987     -1973.3256      512.91228     -2486.2379      317            19           
    556000   310.15896      310.15896      1619.6156     -1959.4215      516.80945     -2476.2309      317            19           
    557000   297.54457      297.54457      1488.1257     -1966.4888      495.79042     -2462.2792      317            19           
    558000   298.22468      298.22468      1152.7815     -1984.2874      496.92368     -2481.2111      317            19           
    559000   305.02208      305.02208      1357.2313     -1940.2265      508.25        -2448.4765      317            19           
    560000   295.7807       295.7807       1333.1037     -1968.6554      492.85133     -2461.5068      317            19           
    561000   302.20265      302.20265      1218.2692     -1970.0298      503.55207     -2473.5819      317            19           
    562000   316.0757       316.0757       1490.0308     -1926.8626      526.66834     -2453.5309      317            19           
    563000   283.46941      283.46941      1557.1699     -1969.2802      472.33738     -2441.6175      317            19           
    564000   309.41701      309.41701      1753.059      -1905.4145      515.57315     -2420.9877      317            19           
    565000   291.54652      291.54652      1256.5392     -1970.8627      485.79604     -2456.6587      317            19           
    566000   301.97288      301.97288      1238.1553     -1944.109       503.16921     -2447.2782      317            19           
    567000   300.56985      300.56985      1276.4068     -1956.2942      500.83138     -2457.1255      317            19           
    568000   302.28228      302.28228      1456.3087     -1948.0205      503.68475     -2451.7053      317            19           
    569000   300.83726      300.83726      1112.1478     -1962.1038      501.27695     -2463.3808      317            19           
    570000   300.84444      300.84444      1239.631      -1950.8412      501.28891     -2452.1301      317            19           
    571000   291.8214       291.8214       1070.7619     -2002.2846      486.25407     -2488.5386      317            19           
    572000   297.71284      297.71284      939.47806     -2001.248       496.07082     -2497.3188      317            19           
    573000   297.08915      297.08915      1211.3527     -1984.4392      495.03158     -2479.4707      317            19           
    574000   301.91474      301.91474      1259.7023     -1978.9102      503.07233     -2481.9825      317            19           
    575000   304.84907      304.84907      1064.2192     -1981.9963      507.96171     -2489.9581      317            19           
    576000   304.46895      304.46895      1373.6489     -1931.4924      507.32833     -2438.8207      317            19           
    577000   294.6229       294.6229       904.66624     -2006.2905      490.92213     -2497.2126      317            19           
    578000   315.62759      315.62759      1226.5333     -1967.0308      525.92168     -2492.9524      317            19           
    579000   293.99885      293.99885      1060.7855     -1986.3208      489.88228     -2476.2031      317            19           
    580000   299.01242      299.01242      1346.7997     -1971.4061      498.23627     -2469.6424      317            19           
    581000   287.51901      287.51901      1263.1401     -1995.9932      479.08511     -2475.0784      317            19           
    582000   287.06629      287.06629      1324.3311     -1986.4616      478.33075     -2464.7924      317            19           
    583000   312.26442      312.26442      875.52587     -1956.9923      520.31772     -2477.31        317            19           
    584000   305.13574      305.13574      766.48038     -1983.3199      508.43938     -2491.7593      317            19           
    585000   287.18747      287.18747      860.43675     -2014.2591      478.53268     -2492.7918      317            19           
    586000   286.59441      286.59441      1221.2075     -1985.0189      477.54447     -2462.5634      317            19           
    587000   296.35925      296.35925      1764.8174     -1932.9858      493.81536     -2426.8012      317            19           
    588000   298.27051      298.27051      534.11296     -2001.5112      497.00005     -2498.5112      317            19           
    589000   314.52778      314.52778      950.40743     -1964.6099      524.0891      -2488.699       317            19           
    590000   293.18816      293.18816      1272.634      -1955.3224      488.53147     -2443.8539      317            19           
    591000   299.34571      299.34571      1437.4229     -1968.9817      498.79163     -2467.7733      317            19           
    592000   299.30366      299.30366      937.53343     -1974.3867      498.72155     -2473.1083      317            19           
    593000   284.67219      284.67219      1575.1551     -2001.6364      474.34154     -2475.9779      317            19           
    594000   282.9334       282.9334       1123.082      -1992.7873      471.44424     -2464.2316      317            19           
    595000   299.04808      299.04808      869.46902     -1960.4483      496.81002     -2457.2584      317            18           
    596000   299.62666      299.62666      1033.6208     -1961.6747      497.77121     -2459.4459      317            18           
    597000   287.77975      287.77975      1335.2069     -1996.4948      478.08988     -2474.5847      317            18           
    598000   279.05778      279.05778      1291.76       -1982.0397      463.60002     -2445.6397      317            18           
    599000   304.6461       304.6461       741.26361     -1972.9969      506.11002     -2479.107       317            18           
    600000   294.85583      294.85583      1384.0879     -1972.3894      489.84541     -2462.2348      317            18           
    601000   296.84516      296.84516      1170.7494     -1963.3955      493.15028     -2456.5458      317            18           
    602000   304.98108      304.98108      1134.1882     -1958.8241      506.66654     -2465.4906      317            18           
    603000   307.76007      307.76007      1638.6439     -1916.6502      511.28329     -2427.9335      317            18           
    604000   305.45196      305.45196      1378.7846     -1946.0478      507.44881     -2453.4966      317            18           
    605000   304.13449      304.13449      1367.2186     -1956.4025      505.26008     -2461.6625      317            18           
    606000   297.14137      297.14137      1460.0864     -1952.2291      493.64239     -2445.8715      317            18           
    607000   297.39722      297.39722      1011.1175     -1950.6536      494.06742     -2444.7211      317            18           
    608000   321.07678      321.07678      815.61604     -1948.8197      533.4064      -2482.2261      317            18           
    609000   297.75182      297.75182      1459.616      -1951.8586      494.65653     -2446.5152      317            18           
    610000   306.62278      306.62278      912.3812      -1981.8322      509.3939      -2491.2261      317            18           
    611000   306.02949      306.02949      1424.3085     -1935.2027      508.40826     -2443.6109      317            18           
    612000   311.50808      311.50808      753.56272     -1957.5244      517.50987     -2475.0343      317            18           
    613000   317.93191      317.93191      1081.8481     -1932.4469      526.60231     -2459.0493      317            17           
    614000   304.11192      304.11192      1258.7124     -1948.9513      503.71176     -2452.663       317            17           
    615000   297.20559      297.20559      1126.4524     -1962.1879      490.79603     -2452.984       317            16           
    616000   298.2004       298.2004       859.09474     -1987.6911      492.43883     -2480.13        317            16           
    617000   326.4725       326.4725       1093.0021     -1903.6404      539.12649     -2442.7669      317            16           
    618000   288.07885      288.07885      794.66206     -1990.5639      475.72441     -2466.2883      317            16           
    619000   307.22016      307.22016      1115.0071     -1927.9084      507.33377     -2435.2422      317            16           
    620000   286.91616      286.91616      1397.6045     -1964.8137      473.80438     -2438.6181      317            16           
    621000   305.76382      305.76382      1332.6429     -1928.2539      504.92882     -2433.1827      317            16           
    622000   296.84726      296.84726      1249.3288     -1952.6781      490.20429     -2442.8824      317            16           
    623000   302.54294      302.54294      1428.2621     -1924.3075      498.10693     -2422.4145      317            15           
    624000   307.35601      307.35601      736.1424      -1954.5947      506.03117     -2460.6259      317            15           
    625000   309.70529      309.70529      866.37003     -1940.3868      509.89902     -2450.2859      317            15           
    626000   295.67746      295.67746      1047.8993     -1960.7606      486.8036      -2447.5642      317            15           
    627000   297.19292      297.19292      828.83473     -1974.5546      489.29865     -2463.8533      317            15           
    628000   297.79099      297.79099      1023.3228     -1966.0196      490.2833      -2456.3029      317            15           
    629000   299.97356      299.97356      1232.2994     -1965.5036      493.8767      -2459.3803      317            15           
    630000   296.23067      296.23067      895.31508     -1977.1591      487.7144      -2464.8735      317            15           
    631000   296.17979      296.17979      1227.0713     -1941.4509      487.63063     -2429.0816      317            15           
    632000   308.4819       308.4819       1118.7624     -1923.3284      507.88483     -2431.2132      317            15           
    633000   309.50339      309.50339      1524.6595     -1898.8337      509.56662     -2408.4004      317            15           
    634000   301.98366      301.98366      828.17347     -1940.2991      497.18613     -2437.4853      317            15           
    635000   304.558        304.558        1298.0288     -1930.3054      501.42452     -2431.7299      317            15           
    636000   295.87808      295.87808      1478.6561     -1947.1795      487.13389     -2434.3134      317            15           
    637000   297.8823       297.8823       883.08754     -1963.9993      490.43364     -2454.4329      317            15           
    638000   296.07636      296.07636      1295.8429     -1944.967       487.46034     -2432.4273      317            15           
    639000   298.31734      298.31734      1186.0139     -1963.349       491.1499      -2454.4989      317            15           
    640000   301.79269      301.79269      1184.106      -1963.6845      496.87172     -2460.5563      317            15           
    641000   290.10779      290.10779      1065.4486     -1961.0845      477.63369     -2438.7182      317            15           
    642000   309.40069      309.40069      1377.1701     -1943.5997      509.39752     -2452.9972      317            15           
    643000   290.32716      290.32716      1312.6917     -1963.1013      477.99485     -2441.0961      317            15           
    644000   291.17177      291.17177      670.43909     -1964.8814      479.38541     -2444.2668      317            15           
    645000   324.48551      324.48551      1222.4423     -1894.9546      532.62114     -2427.5757      317            14           
    646000   297.30224      297.30224      883.63754     -1973.6415      488.00164     -2461.6431      317            14           
    647000   295.86753      295.86753      777.08945     -1949.4272      485.64665     -2435.0739      317            14           
    648000   301.36854      301.36854      1097.4753     -1910.2161      494.67619     -2404.8923      317            14           
    649000   313.02834      313.02834      1015.7641     -1915.0886      513.81496     -2428.9035      317            14           
    650000   300.79332      300.79332      824.42582     -1932.0666      493.73201     -2425.7986      317            14           
    651000   292.73517      292.73517      1346.3442     -1931.4318      480.50509     -2411.9369      317            14           
    652000   286.22886      286.22886      1293.2462     -1948.3231      469.82543     -2418.1486      317            14           
    653000   290.34926      290.34926      1096.8122     -1961.5681      476.58879     -2438.1569      317            14           
    654000   291.36286      291.36286      917.85752     -1941.6399      478.25254     -2419.8924      317            14           
    655000   302.42155      302.42155      1287.828      -1940.161       496.40463     -2436.5656      317            14           
    656000   293.83276      293.83276      1041.2833     -1989.8394      482.30671     -2472.1461      317            14           
    657000   291.76153      291.76153      1116.9898     -1955.9957      478.90692     -2434.9026      317            14           
    658000   307.18971      307.18971      1020.7079     -1928.7514      504.23124     -2432.9826      317            14           
    659000   303.28353      303.28353      1170.9507     -1932.1907      497.81951     -2430.0102      317            14           
    660000   318.25806      318.25806      954.22401     -1914.8985      522.3992      -2437.2977      317            14           
    661000   281.84779      281.84779      1071.1288     -1975.913       462.63419     -2438.5472      317            14           
    662000   313.41452      313.41452      1251.7397     -1906.2382      514.44885     -2420.6871      317            14           
    663000   283.32795      283.32795      1254.0153     -1961.2249      465.06377     -2426.2886      317            14           
    664000   304.26651      304.26651      1179.3312     -1906.8874      499.433       -2406.3204      317            14           
    665000   300.27609      300.27609      1090.3151     -1942.0619      492.883       -2434.9449      317            14           
    666000   315.36738      315.36738      805.41246     -1948.7119      517.65434     -2466.3662      317            14           
    667000   280.28378      280.28378      578.83338     -1980.5909      460.06697     -2440.6579      317            14           
    668000   303.19001      303.19001      900.18238     -1949.8758      497.666       -2447.5418      317            14           
    669000   293.38833      293.38833      569.12194     -1967.1843      481.57721     -2448.7615      317            14           
    670000   310.17576      310.17576      805.71514     -1937.3701      509.13264     -2446.5027      317            14           
    671000   317.15988      317.15988      764.9084      -1930.2266      520.5966      -2450.8232      317            14           
    672000   307.77622      307.77622      713.67467     -1929.8864      505.19396     -2435.0803      317            14           
    673000   290.85929      290.85929      831.26859     -1952.9698      477.42596     -2430.3958      317            14           
    674000   309.65746      309.65746      1398.7315     -1913.4223      508.28189     -2421.7042      317            14           
    675000   307.80844      307.80844      1003.545      -1949.0872      505.24685     -2454.334       317            14           
    676000   304.97583      304.97583      1366.9891     -1912.4374      500.59732     -2413.0347      317            14           
    677000   304.39043      304.39043      587.67058     -1942.7071      499.63641     -2442.3435      317            14           
    678000   283.14604      283.14604      1024.7372     -1958.3826      464.76517     -2423.1477      317            14           
    679000   306.41256      306.41256      906.99933     -1935.8499      502.9556      -2438.8055      317            14           
    680000   299.42936      299.42936      1279.2524     -1942.5982      492.98073     -2435.5789      317            15           
    681000   308.40844      308.40844      1448.0485     -1923.2558      507.76388     -2431.0197      317            15           
    682000   305.27733      305.27733      1123.9802     -1926.1096      502.60883     -2428.7184      317            15           
    683000   296.63412      296.63412      1132.9065     -1939.0654      488.37864     -2427.444       317            15           
    684000   294.40315      294.40315      961.06568     -1952.8939      484.70556     -2437.5995      317            15           
    685000   299.193        299.193        810.58796     -1949.0384      492.59158     -2441.63        317            15           
    686000   303.81051      303.81051      905.13255     -1948.9951      500.19385     -2449.189       317            15           
    687000   290.50331      290.50331      937.70357     -1965.795       478.28487     -2444.0799      317            15           
    688000   292.93648      292.93648      959.22109     -1971.1202      482.29084     -2453.411       317            15           
    689000   317.5884       317.5884       1491.4214     -1881.5261      522.87777     -2404.4038      317            15           
    690000   288.58515      288.58515      1059.4157     -1983.9979      475.12681     -2459.1247      317            15           
    691000   325.64825      325.64825      897.19959     -1923.1997      536.14752     -2459.3472      317            15           
    692000   289.82478      289.82478      567.0296      -1995.4594      477.16774     -2472.6271      317            15           
    693000   322.07939      322.07939      1044.3954     -1929.8987      530.27175     -2460.1705      317            15           
    694000   294.30759      294.30759      1209.093      -1962.8568      484.54824     -2447.405       317            15           
    695000   298.93135      298.93135      860.22056     -1961.9741      492.16079     -2454.1349      317            15           
    696000   303.19228      303.19228      809.65066     -1963.9686      499.17601     -2463.1446      317            15           
    697000   290.95489      290.95489      1456.6833     -1939.2374      479.02836     -2418.2658      317            15           
    698000   293.4939       293.4939       970.85045     -1959.1257      483.20858     -2442.3343      317            15           
    699000   303.96836      303.96836      1409.1674     -1933.0927      501.96385     -2435.0566      317            16           
    700000   310.17446      310.17446      1135.9363     -1942.4385      512.21241     -2454.651       317            16           
    701000   292.29208      292.29208      872.21174     -1990.9479      482.68201     -2473.6299      317            16           
    702000   314.0341       314.0341       1320.7883     -1938.3012      518.5861      -2456.8873      317            16           
    703000   282.34192      282.34192      959.62498     -1994.8978      466.25063     -2461.1484      317            16           
    704000   301.04764      301.04764      1422.9913     -1946.5276      497.14067     -2443.6682      317            16           
    705000   301.11047      301.11047      912.9302      -1954.1523      497.24443     -2451.3967      317            16           
    706000   312.52515      312.52515      449.37855     -1941.2279      516.09428     -2457.3222      317            16           
    707000   297.47608      297.47608      774.35451     -1969.8436      491.24271     -2461.0863      317            16           
    708000   298.45206      298.45206      1086.2321     -1965.7373      491.3717      -2457.109       317            15           
    709000   302.71132      302.71132      1211.6859     -1942.2366      498.38414     -2440.6208      317            15           
    710000   291.58764      291.58764      1489.862      -1947.8279      480.07012     -2427.898       317            15           
    711000   289.9103       289.9103       1021.6199     -1967.5696      477.30853     -2444.8781      317            15           
    712000   310.06393      310.06393      1226.6615     -1932.8297      510.48949     -2443.3191      317            15           
    713000   298.64643      298.64643      990.83929     -1944.9438      491.69171     -2436.6355      317            15           
    714000   295.91881      295.91881      842.01183     -1951.4545      487.20095     -2438.6554      317            15           
    715000   315.68092      315.68092      1274.6126     -1914.6402      519.7373      -2434.3775      317            15           
    716000   283.75942      283.75942      984.72639     -1975.2956      467.18172     -2442.4773      317            15           
    717000   309.87478      309.87478      792.26158     -1957.0577      510.17807     -2467.2357      317            15           
    718000   283.22794      283.22794      1118.688      -1964.4163      466.30669     -2430.723       317            15           
    719000   307.55868      307.55868      930.11625     -1927.1506      504.83688     -2431.9875      317            14           
    720000   309.28264      309.28264      952.89692     -1926.7867      507.66665     -2434.4534      317            14           
    721000   296.73456      296.73456      1170.2306     -1943.6369      487.06983     -2430.7067      317            14           
    722000   284.19657      284.19657      1200.5451     -1955.1356      466.48955     -2421.6251      317            14           
    723000   290.6436       290.6436       791.65126     -1976.7823      477.07192     -2453.8542      317            14           
    724000   313.4182       313.4182       602.71246     -1914.5274      514.4549      -2428.9823      317            14           
    725000   299.28818      299.28818      1004.9503     -1926.6377      491.26142     -2417.8992      317            14           
    726000   305.9156       305.9156       839.22321     -1943.1136      502.13987     -2445.2535      317            14           
    727000   290.98569      290.98569      1568.3021     -1941.162       477.63343     -2418.7955      317            14           
    728000   293.60834      293.60834      1222.6887     -1944.5862      481.93834     -2426.5245      317            14           
    729000   310.87692      310.87692      1286.3144     -1895.9864      510.28356     -2406.2699      317            14           
    730000   319.47778      319.47778      1390.8255     -1894.2383      524.40129     -2418.6396      317            14           
    731000   304.67801      304.67801      951.64082     -1936.6413      500.10846     -2436.7498      317            14           
    732000   311.94038      311.94038      786.65907     -1945.6725      512.02915     -2457.7016      317            14           
    733000   306.78245      306.78245      680.43339     -1949.2038      503.56275     -2452.7666      317            14           
    734000   293.56025      293.56025      1313.2932     -1938.6546      481.8594      -2420.514       317            14           
    735000   309.19789      309.19789      883.88749     -1937.9361      507.52754     -2445.4637      317            14           
    736000   290.62378      290.62378      718.83782     -1944.0816      477.03939     -2421.121       317            14           
    737000   315.53556      315.53556      1310.5586     -1915.6087      517.93039     -2433.5391      317            14           
    738000   278.66569      278.66569      1158.4127     -1975.2325      457.41098     -2432.6435      317            14           
    739000   290.20799      290.20799      1000.4355     -1971.5769      476.35689     -2447.9338      317            14           
    740000   290.79825      290.79825      1334.8479     -1943.9296      477.32577     -2421.2554      317            14           
    741000   289.83754      289.83754      807.25043     -1983.2521      475.74883     -2459.001       317            14           
    742000   297.65729      297.65729      1078.8018     -1959.3821      488.58442     -2447.9665      317            14           
    743000   281.85026      281.85026      726.12966     -1981.726       462.63825     -2444.3642      317            14           
    744000   321.59384      321.59384      1607.3125     -1869.4215      526.27698     -2395.6985      316            14           
    745000   296.0834       296.0834       1057.3762     -1950.5592      484.53004     -2435.0893      316            14           
    746000   295.95333      295.95333      1102.1618     -1940.3039      484.31718     -2424.6211      316            14           
    747000   315.24559      315.24559      1141.9078     -1908.1192      515.88828     -2424.0075      316            14           
    748000   287.77855      287.77855      769.60754     -1984.4145      470.93945     -2455.3539      316            14           
    749000   284.63581      284.63581      1045.2448     -1954.8816      465.79646     -2420.678       316            14           
    750000   305.89605      305.89605      1039.2767     -1914.8883      500.58809     -2415.4764      316            14           
    751000   275.98601      275.98601      847.1734      -1983.161       451.64137     -2434.8024      316            14           
    752000   315.09452      315.09452      1147.344      -1900.2386      515.64106     -2415.8797      315            15           
    753000   309.2537       309.2537       872.19954     -1937.5985      504.54639     -2442.1449      315            14           
    754000   308.6198       308.6198       998.06158     -1904.6799      501.97897     -2406.6588      315            13           
    755000   305.25314      305.25314      757.30653     -1895.25        496.50299     -2391.753       315            13           
    756000   293.95173      293.95173      1039.4939     -1911.5777      478.12092     -2389.6986      315            13           
    757000   303.50956      303.50956      855.86044     -1915.5486      493.667       -2409.2156      315            13           
    758000   295.90943      295.90943      1594.422      -1891.703       481.30517     -2373.0082      315            13           
    759000   307.21805      307.21805      1492.8231     -1899.136       499.69897     -2398.835       315            13           
    760000   297.89453      297.89453      902.8341      -1927.0829      484.534       -2411.6169      315            13           
    761000   309.83813      309.83813      1141.7532     -1852.2965      503.96061     -2356.2571      315            13           
    762000   287.12072      287.12072      1228.1296     -1931.849       467.01009     -2398.8591      315            13           
    763000   286.42206      286.42206      825.65903     -1948.0968      465.8737      -2413.9705      315            13           
    764000   311.1127       311.1127       1272.3991     -1899.1254      506.03374     -2405.1591      315            13           
    765000   310.74402      310.74402      658.21063     -1897.065       505.43406     -2402.499       315            13           
    766000   301.84531      301.84531      874.43853     -1938.9939      490.96006     -2429.9539      315            13           
    767000   314.37045      314.37045      1367.8501     -1892.9845      511.33256     -2404.317       315            13           
    768000   293.59524      293.59524      1113.1412     -1947.1895      477.54108     -2424.7306      315            13           
    769000   300.53559      300.53559      739.15534     -1921.9868      488.82976     -2410.8166      315            13           
    770000   315.00418      315.00418      910.48803     -1902.5594      512.36333     -2414.9227      315            13           
    771000   306.22657      306.22657      1075.2639     -1896.0964      498.0863      -2394.1826      315            13           
    772000   325.49581      325.49581      922.35193     -1886.4078      529.42828     -2415.8361      315            13           
    773000   298.21741      298.21741      859.09449     -1917.2561      485.05917     -2402.3153      315            13           
    774000   308.00119      308.00119      543.75867     -1940.7448      500.97277     -2441.7176      315            13           
    775000   295.41862      295.41862      1240.899      -1906.5401      480.50685     -2387.0469      315            13           
    776000   307.3732       307.3732       577.83161     -1923.2788      499.95132     -2423.2302      315            13           
    777000   308.9964       308.9964       785.36798     -1911.8485      502.5915      -2414.44        315            13           
    778000   296.03633      296.03633      1115.5993     -1930.9881      481.51158     -2412.4997      315            13           
    779000   304.15624      304.15624      621.90736     -1946.8647      494.71885     -2441.5835      315            13           
    780000   300.46334      300.46334      749.15869     -1924.5772      488.71224     -2413.2894      315            13           
    781000   310.37541      310.37541      1028.2632     -1908.3381      504.83451     -2413.1726      315            13           
    782000   291.1062       291.1062       1043.5599     -1910.1734      473.49258     -2383.666       315            13           
    783000   295.76024      295.76024      872.8572      -1916.6221      481.06251     -2397.6846      315            13           
    784000   297.09927      297.09927      649.44847     -1929.2448      483.24049     -2412.4853      315            13           
    785000   303.42895      303.42895      797.54082     -1933.3881      493.53589     -2426.924       315            13           
    786000   301.46104      301.46104      1379.9349     -1910.7825      490.33503     -2401.1175      315            13           
    787000   316.13661      316.13661      967.60336     -1899.0017      514.20527     -2413.2069      315            13           
    788000   305.91491      305.91491      389.4791      -1937.2607      496.05958     -2433.3203      315            12           
    789000   285.39935      285.39935      818.57232     -1935.4513      462.79237     -2398.2437      315            12           
    790000   306.89943      306.89943      560.85761     -1904.2069      497.65604     -2401.863       315            12           
    791000   288.76895      288.76895      963.36917     -1918.1746      468.25637     -2386.431       315            12           
    792000   330.38646      330.38646      1057.7638     -1880.7094      535.74168     -2416.4511      315            12           
    793000   281.30015      281.30015      962.02338     -1929.6426      456.14526     -2385.7879      315            12           
    794000   319.21779      319.21779      750.38173     -1869.4873      517.63101     -2387.1183      315            12           
    795000   304.24293      304.24293      601.43687     -1918.6759      493.34837     -2412.0243      315            12           
    796000   292.15765      292.15765      996.52692     -1911.0857      473.75135     -2384.8371      315            12           
    797000   303.37837      303.37837      1132.0308     -1887.8201      491.94643     -2379.7665      315            12           
    798000   297.73869      297.73869      692.32445     -1925.894       482.80134     -2408.6953      315            12           
    799000   323.90291      323.90291      1058.1544     -1871.8373      525.22822     -2397.0655      315            12           
    800000   298.61438      298.61438      1219.0255     -1897.2203      484.22133     -2381.4416      315            12           
    801000   296.89911      296.89911      1065.9507     -1907.9158      481.43992     -2389.3557      315            12           
    802000   298.49569      298.49569      1136.4221     -1912.7336      484.02888     -2396.7625      315            12           
    803000   303.74218      303.74218      1065.9564     -1888.8306      492.53638     -2381.367       315            12           
    804000   295.88222      295.88222      678.6597      -1940.7996      479.79097     -2420.5905      315            12           
    805000   301.02724      301.02724      443.94351     -1946.268       488.13393     -2434.4019      315            12           
    806000   298.25998      298.25998      860.76276     -1896.5319      483.64665     -2380.1786      315            12           
    807000   303.90715      303.90715      524.57499     -1911.5564      492.80388     -2404.3602      315            12           
    808000   311.44355      311.44355      1216.5757     -1866.0744      503.47736     -2369.5517      314            12           
    809000   316.87095      316.87095      797.14765     -1867.0822      512.25124     -2379.3335      314            12           
    810000   291.90917      291.90917      704.81004     -1921.5182      471.89822     -2393.4164      314            12           
    811000   301.8039       301.8039       535.33667     -1903.3854      487.89396     -2391.2794      314            12           
    812000   309.75794      309.75794      1090.8764     -1862.6981      500.75242     -2363.4506      314            12           
    813000   295.47772      295.47772      1068.7675     -1902.858       477.66711     -2380.5251      314            12           
    814000   291.02754      291.02754      1411.1156     -1894.5263      471.91881     -2366.4451      314            13           
    815000   305.64293      305.64293      847.76868     -1893.3683      494.10011     -2387.4685      314            12           
    816000   284.94115      284.94115      636.17557     -1935.6434      460.63377     -2396.2771      314            12           
    817000   298.72625      298.72625      776.41776     -1918.6458      482.91866     -2401.5645      314            12           
    818000   297.92231      297.92231      551.47446     -1909.211       481.61901     -2390.83        314            12           
    819000   310.6714       310.6714       811.12007     -1861.3883      502.2291      -2363.6174      314            12           
    820000   311.93457      311.93457      1166.9104     -1861.8869      504.27114     -2366.1581      314            12           
    821000   297.05514      297.05514      858.58418     -1898.7619      480.21716     -2378.9791      314            12           
    822000   314.29825      314.29825      629.91782     -1878.1713      508.09224     -2386.2635      314            12           
    823000   299.0803       299.0803       1200.3047     -1886.969       483.49101     -2370.46        314            12           
    824000   301.95137      301.95137      951.68009     -1907.6199      486.63227     -2394.2522      313            12           
    825000   301.95003      301.95003      532.21625     -1900.3057      486.63011     -2386.9358      313            12           
    826000   300.61121      300.61121      981.15223     -1865.4136      484.47243     -2349.886       313            12           
    827000   309.96138      309.96138      1291.2987     -1842.9053      499.5414      -2342.4467      313            12           
    828000   290.22375      290.22375      966.05599     -1891.9294      467.73175     -2359.6611      313            12           
    829000   303.9316       303.9316       721.50987     -1892.7131      489.82365     -2382.5367      313            12           
    830000   287.37858      287.37858      922.39283     -1900.1727      463.14639     -2363.3191      313            12           
    831000   289.28659      289.28659      709.75945     -1934.0559      466.22139     -2400.2773      313            12           
    832000   291.5042       291.5042       624.21448     -1930.3426      469.79535     -2400.138       313            12           
    833000   315.1118       315.1118       770.69332     -1875.5026      507.84193     -2383.3445      313            12           
    834000   279.61178      279.61178      367.24215     -1949.8179      450.62923     -2400.4471      313            12           
    835000   305.59598      305.59598      925.64623     -1883.1529      492.50601     -2375.6589      313            12           
    836000   285.75226      285.75226      329.71783     -1926.3372      460.52538     -2386.8625      313            12           
    837000   300.44298      300.44298      764.36215     -1873.5726      484.20131     -2357.7739      313            12           
    838000   291.47832      291.47832      918.90605     -1872.3281      469.75364     -2342.0817      313            12           
    839000   296.50129      296.50129      848.60956     -1877.4256      477.84878     -2355.2744      313            12           
    840000   295.03846      295.03846      1290.0917     -1870.4457      475.49125     -2345.937       313            12           
    841000   305.61851      305.61851      336.17403     -1898.1741      492.54232     -2390.7165      313            12           
    842000   301.8107       301.8107       373.14256     -1889.5964      486.40556     -2376.002       313            12           
    843000   314.96317      314.96317      600.3918      -1862.3531      507.60241     -2369.9555      313            12           
    844000   301.06975      301.06975      1016.4095     -1853.2104      485.21143     -2338.4218      313            12           
    845000   304.75258      304.75258      1147.1412     -1852.1617      491.14677     -2343.3085      313            12           
    846000   299.85688      299.85688      695.00575     -1892.9224      483.25674     -2376.1791      313            12           
    847000   307.52154      307.52154      749.2242      -1882.5477      497.13707     -2379.6848      313            13           
    848000   282.28505      282.28505      642.00171     -1934.1312      456.33993     -2390.4712      313            13           
    849000   308.45499      308.45499      958.7118      -1880.4574      498.64606     -2379.1034      313            13           
    850000   302.77092      302.77092      1039.9209     -1881.6638      489.45725     -2371.1211      313            13           
    851000   292.36894      292.36894      675.10991     -1916.4214      472.64148     -2389.0629      313            13           
    852000   289.13812      289.13812      1326.2045     -1918.3523      467.41856     -2385.7709      313            13           
    853000   302.82696      302.82696      819.45139     -1875.6374      489.54785     -2365.1852      313            13           
    854000   287.50246      287.50246      751.81165     -1914.5009      466.20269     -2380.7036      313            14           
    855000   304.10988      304.10988      833.71144     -1888.268       493.13263     -2381.4006      313            14           
    856000   292.65161      292.65161      982.96595     -1900.6555      474.55234     -2375.2079      313            14           
    857000   284.15734      284.15734      595.15619     -1952.0527      460.77836     -2412.8311      313            14           
    858000   315.60042      315.60042      1168.1935     -1900.4328      511.76523     -2412.198       313            14           
    859000   308.76747      308.76747      916.485       -1883.3667      500.68518     -2384.0519      313            14           
    860000   297.13663      297.13663      747.03994     -1898.268       481.82507     -2380.0931      313            14           
    861000   275.67407      275.67407      886.0755      -1957.4671      447.02223     -2404.4893      313            14           
    862000   308.48363      308.48363      754.61397     -1895.3491      500.22493     -2395.5741      313            14           
    863000   307.32951      307.32951      925.37602     -1880.5338      498.35345     -2378.8873      313            14           
    864000   295.66544      295.66544      704.97753     -1904.6058      479.43946     -2384.0452      313            14           
    865000   301.1869       301.1869       979.94394     -1881.2242      488.39282     -2369.617       313            14           
    866000   310.05229      310.05229      1059.0806     -1866.5352      502.7686      -2369.3038      313            14           
    867000   284.42261      284.42261      759.3008      -1936.4562      461.20851     -2397.6647      313            14           
    868000   298.93459      298.93459      948.6124      -1900.6821      484.74057     -2385.4227      313            14           
    869000   310.24036      310.24036      722.28662     -1884.6741      503.07357     -2387.7477      313            14           
    870000   319.55336      319.55336      1037.2218     -1821.8195      518.17516     -2339.9946      313            14           
    871000   302.60815      302.60815      602.2817      -1875.9076      490.69748     -2366.605       313            14           
    872000   309.06303      309.06303      1309.9675     -1860.894       501.16445     -2362.0585      313            14           
    873000   290.37402      290.37402      767.06922     -1933.5787      470.85908     -2404.4377      313            14           
    874000   288.58887      288.58887      727.97952     -1915.1387      467.96436     -2383.103       313            14           
    875000   326.30259      326.30259      835.13157     -1869.6321      529.11945     -2398.7516      313            14           
    876000   293.87088      293.87088      873.24362     -1897.1219      476.52947     -2373.6513      313            14           
    877000   306.74127      306.74127      747.98641     -1907.1526      497.39958     -2404.5522      313            14           
    878000   296.19553      296.19553      1204.181      -1880.9594      480.29902     -2361.2585      313            14           
    879000   286.06848      286.06848      750.49928     -1907.3539      463.8774      -2371.2313      313            14           
    880000   312.75075      312.75075      1300.2867     -1828.7763      507.14431     -2335.9206      313            14           
    881000   311.41309      311.41309      813.14332     -1871.5182      503.42812     -2374.9464      312            14           
    882000   302.5102       302.5102       979.99995     -1876.6022      489.03577     -2365.638       312            14           
    883000   305.18438      305.18438      861.6127      -1884.8417      491.84267     -2376.6844      312            13           
    884000   316.66473      316.66473      737.64009     -1837.1293      508.77148     -2345.9008      312            12           
    885000   305.76487      305.76487      739.45776     -1879.7483      491.25915     -2371.0075      312            12           
    886000   291.34887      291.34887      812.33689     -1898.6581      468.09759     -2366.7557      312            12           
    887000   293.47764      293.47764      662.41961     -1888.7676      471.51779     -2360.2854      312            12           
    888000   282.02149      282.02149      1050.4867     -1915.6167      453.11169     -2368.7284      312            12           
    889000   309.6374       309.6374       812.69203     -1865.4705      497.48098     -2362.9515      312            12           
    890000   309.05829      309.05829      748.6913      -1857.1498      496.55054     -2353.7003      312            12           
    891000   298.25231      298.25231      668.92734     -1889.1446      479.18905     -2368.3337      312            12           
    892000   297.13026      297.13026      806.10919     -1880.8792      477.3863      -2358.2655      312            12           
    893000   308.75777      308.75777      1224.6156     -1843.5724      496.06771     -2339.6401      312            12           
    894000   315.48653      315.48653      487.85183     -1850.3468      506.87852     -2357.2253      312            12           
    895000   306.77646      306.77646      875.31504     -1865.8665      492.88443     -2358.751       312            12           
    896000   290.81463      290.81463      469.45493     -1875.1936      467.23925     -2342.4328      312            12           
    897000   293.67621      293.67621      679.34785     -1890.4568      471.83682     -2362.2936      312            12           
    898000   291.50989      291.50989      880.75582     -1877.5214      468.35629     -2345.8777      312            12           
    899000   317.33576      317.33576      737.26697     -1834.5114      509.8496      -2344.361       312            12           
    900000   299.38968      299.38968      538.44569     -1860.8628      481.01641     -2341.8792      312            12           
    901000   312.72386      312.72386      329.74582     -1886.7944      502.43985     -2389.2342      312            12           
    902000   299.98051      299.98051      1165.6969     -1877.9236      481.96568     -2359.8892      312            12           
    903000   302.73452      302.73452      821.90939     -1872.3085      486.39042     -2358.6989      312            12           
    904000   294.36214      294.36214      724.63228     -1881.9219      472.93888     -2354.8608      312            12           
    905000   294.57708      294.57708      1037.2774     -1868.2453      473.28422     -2341.5296      312            12           
    906000   306.31746      306.31746      846.78495     -1844.5398      492.14698     -2336.6868      312            12           
    907000   299.71799      299.71799      869.09153     -1863.4105      481.5439      -2344.9544      312            12           
    908000   299.82229      299.82229      422.43926     -1870.7925      481.71146     -2352.504       312            12           
    909000   289.46613      289.46613      994.90595     -1883.5543      465.07267     -2348.627       312            12           
    910000   298.14028      298.14028      1058.9775     -1861.29        479.00905     -2340.299       312            12           
    911000   297.08432      297.08432      492.13927     -1887.5027      477.31248     -2364.8151      312            12           
    912000   300.2798       300.2798       1337.4797     -1838.8245      482.44653     -2321.2711      312            12           
    913000   286.37833      286.37833      163.92943     -1914.7185      460.11163     -2374.8301      312            12           
    914000   297.44873      297.44873      318.33839     -1886.5178      477.89797     -2364.4157      312            12           
    915000   311.09875      311.09875      729.72213     -1850.5557      501.3744      -2351.9301      312            13           
    916000   311.54603      311.54603      1450.797      -1838.8108      502.09526     -2340.9061      312            13           
    917000   296.66413      296.66413      398.5288      -1898.8122      478.11122     -2376.9234      312            13           
    918000   291.5626       291.5626       931.84642     -1875.5647      469.88947     -2345.4542      312            13           
    919000   309.20532      309.20532      553.64554     -1882.5716      499.85904     -2382.4307      312            14           
    920000   297.92812      297.92812      1070.8812     -1889.9867      481.6284      -2371.6151      312            14           
    921000   285.88138      285.88138      760.56235     -1922.7605      462.15374     -2384.9143      312            14           
    922000   315.87178      315.87178      679.79329     -1888.597       510.636       -2399.233       312            14           
    923000   310.02704      310.02704      314.57105     -1886.8625      501.18744     -2388.0499      312            14           
    924000   310.35889      310.35889      1074.3234     -1868.9028      501.7239      -2370.6267      312            14           
    925000   284.63492      284.63492      621.82571     -1914.8539      460.13872     -2374.9926      312            14           
    926000   307.38752      307.38752      921.71971     -1861.8783      496.92041     -2358.7987      312            14           
    927000   300.10391      300.10391      579.5664      -1897.059       485.14578     -2382.2048      312            14           
    928000   287.84535      287.84535      226.8624      -1932.7234      465.32868     -2398.0521      312            14           
    929000   284.61667      284.61667      326.22159     -1905.0688      460.10922     -2365.178       312            14           
    930000   320.73825      320.73825      536.08437     -1835.6706      518.5031      -2354.1737      312            14           
    931000   287.87554      287.87554      753.17185     -1912.3837      465.37748     -2377.7612      312            14           
    932000   290.55908      290.55908      909.37339     -1886.7429      471.15917     -2357.9021      312            15           
    933000   300.81762      300.81762      661.11366     -1911.0907      487.79401     -2398.8847      312            15           
    934000   316.30794      316.30794      468.72395     -1886.2761      514.48393     -2400.76        312            16           
    935000   303.37173      303.37173      784.09058     -1880.7512      493.44282     -2374.194       312            16           
    936000   291.48311      291.48311      347.83201     -1933.0595      474.10564     -2407.1651      312            16           
    937000   288.58121      288.58121      443.63916     -1918.1162      469.38561     -2387.5018      312            16           
    938000   295.36976      295.36976      622.74985     -1903.1396      480.42738     -2383.567       312            16           
    939000   304.56226      304.56226      385.17677     -1889.3911      495.37925     -2384.7704      312            16           
    940000   275.40077      275.40077      1323.3351     -1910.4825      447.94726     -2358.4298      312            16           
    941000   307.51499      307.51499      714.22465     -1905.9447      500.18196     -2406.1267      312            16           
    942000   309.80096      309.80096      838.5095      -1883.1505      503.90014     -2387.0507      312            16           
    943000   293.85595      293.85595      654.5456      -1924.0653      477.96514     -2402.0305      312            16           
    944000   308.73032      308.73032      1624.2216     -1861.9709      502.15872     -2364.1296      312            16           
    945000   284.01787      284.01787      1042.7689     -1911.4599      460.55221     -2372.0121      312            15           
    946000   299.46779      299.46779      779.83166     -1908.9091      485.60519     -2394.5143      312            15           
    947000   310.17312      310.17312      472.47623     -1884.5601      502.96454     -2387.5246      312            15           
    948000   285.10356      285.10356      848.49527     -1927.1573      462.31272     -2389.47        312            15           
    949000   300.59248      300.59248      1008.0423     -1897.757       487.42894     -2385.1859      312            15           
    950000   298.29893      298.29893      900.39321     -1898.8875      483.70982     -2382.5974      312            15           
    951000   314.06391      314.06391      566.79993     -1891.2907      510.83396     -2402.1247      312            16           
    952000   292.84231      292.84231      1070.1122     -1908.2538      476.31642     -2384.5702      312            16           
    953000   299.97806      299.97806      545.53348     -1893.6847      487.92292     -2381.6076      312            16           
    954000   306.64473      306.64473      894.97328     -1891.3409      498.76646     -2390.1073      312            16           
    955000   304.81586      304.81586      708.06295     -1903.4363      495.79175     -2399.228       312            16           
    956000   302.41647      302.41647      962.94735     -1892.1967      491.88906     -2384.0858      312            16           
    957000   288.55817      288.55817      957.20117     -1909.8565      469.34813     -2379.2047      312            16           
    958000   301.35234      301.35234      1134.7838     -1878.557       490.15822     -2368.7152      312            16           
    959000   288.6584       288.6584       640.26019     -1932.0345      469.51116     -2401.5456      312            16           
    960000   300.91334      300.91334      1064.4362     -1896.3811      489.44418     -2385.8252      312            16           
    961000   293.82258      293.82258      926.2722      -1897.5397      477.91085     -2375.4505      312            16           
    962000   330.94089      330.94089      892.05053     -1856.5205      538.28485     -2394.8053      312            16           
    963000   305.96347      305.96347      1194.9421     -1891.5676      497.65836     -2389.226       312            16           
    964000   303.87193      303.87193      1355.4415     -1863.8594      494.25641     -2358.1158      312            16           
    965000   286.06317      286.06317      814.25249     -1944.1176      465.28996     -2409.4075      312            16           
    966000   307.62178      307.62178      976.48344     -1911.0783      500.35565     -2411.4339      312            16           
    967000   302.61694      302.61694      735.77305     -1883.3737      492.21514     -2375.5889      312            16           
    968000   298.49269      298.49269      462.50124     -1891.4115      485.50691     -2376.9184      312            16           
    969000   297.97362      297.97362      755.66636     -1900.05        484.66263     -2384.7126      312            16           
    970000   313.32574      313.32574      1029.9272     -1847.1564      509.63331     -2356.7897      312            16           
    971000   293.09109      293.09109      1171.6429     -1886.5145      476.72106     -2363.2356      312            16           
    972000   309.35288      309.35288      436.79792     -1896.5494      503.17133     -2399.7208      312            16           
    973000   285.78754      285.78754      752.02691     -1905.3307      464.84164     -2370.1724      312            16           
    974000   288.59548      288.59548      583.63125     -1910.2096      469.40882     -2379.6184      312            16           
    975000   295.98709      295.98709      1150.1577     -1868.9234      481.43149     -2350.3549      312            16           
    976000   300.21381      300.21381      1240.0254     -1878.5729      488.30637     -2366.8792      312            16           
    977000   298.54774      298.54774      1221.9281     -1871.0498      485.59646     -2356.6463      312            16           
    978000   285.63779      285.63779      1153.0357     -1903.3073      463.179       -2366.4863      312            15           
    979000   294.37948      294.37948      1064.5888     -1875.5177      478.81667     -2354.3344      312            16           
    980000   291.28335      291.28335      1186.7745     -1880.64        473.78073     -2354.4207      312            16           
    981000   303.13237      303.13237      604.77226     -1896.666       491.54752     -2388.2135      312            15           
    982000   296.68229      296.68229      1109.3692     -1898.3134      481.08833     -2379.4018      312            15           
    983000   304.7042       304.7042       928.92381     -1894.1358      494.09634     -2388.2321      312            15           
    984000   314.51314      314.51314      864.17621     -1888.7116      511.56464     -2400.2762      312            16           
    985000   319.3783       319.3783       608.89346     -1887.6435      519.47796     -2407.1215      312            16           
    986000   293.32133      293.32133      1184.5392     -1902.6108      477.09556     -2379.7064      312            16           
    987000   292.88051      292.88051      853.91178     -1892.6407      476.37854     -2369.0192      312            16           
    988000   309.76639      309.76639      819.3218      -1882.0183      503.84391     -2385.8623      312            16           
    989000   296.88117      296.88117      749.64236     -1882.3076      482.88574     -2365.1934      312            16           
    990000   298.50141      298.50141      594.17373     -1921.7515      485.52111     -2407.2726      312            16           
    991000   291.81461      291.81461      808.71638     -1930.7891      474.64483     -2405.4339      312            16           
    992000   305.27871      305.27871      789.06713     -1890.7676      496.54457     -2387.3122      312            16           
    993000   296.25468      296.25468      503.36359     -1911.833       481.86674     -2393.6997      312            16           
    994000   287.74458      287.74458      731.41426     -1927.4051      468.02482     -2395.43        312            16           
    995000   307.22118      307.22118      786.76772     -1896.7536      499.70406     -2396.4576      312            16           
    996000   275.95817      275.95817      546.05695     -1958.3181      448.85388     -2407.172       312            16           
    997000   292.3148       292.3148       817.55129     -1906.7693      476.91063     -2383.6799      312            17           
    998000   295.05497      295.05497      773.79667     -1922.9451      481.38121     -2404.3263      312            17           
    999000   307.66081      307.66081      905.11312     -1894.0674      501.9476      -2396.0151      312            17           
   1000000   291.10419      291.10419      1224.5892     -1917.5023      474.93552     -2392.4378      312            17           
Loop time of 1781.36 on 4 procs for 1000000 steps with 987 atoms

Performance: 12.126 ns/day, 1.979 hours/ns, 561.369 timesteps/s, 554.071 katom-step/s
95.2% CPU use with 4 MPI tasks x 1 OpenMP threads

MPI task timing breakdown:
Section |  min time  |  avg time  |  max time  |%varavg| %total
---------------------------------------------------------------
Pair    | 380.84     | 384.17     | 387.77     |  15.1 | 21.57
Bond    | 3.0377     | 3.051      | 3.0591     |   0.5 |  0.17
Kspace  | 82.197     | 85.751     | 88.888     |  30.8 |  4.81
Neigh   | 10.539     | 10.539     | 10.54      |   0.0 |  0.59
Comm    | 30.241     | 30.344     | 30.511     |   2.0 |  1.70
Output  | 11.492     | 13.63      | 18.325     |  74.3 |  0.77
Modify  | 1246.2     | 1251       | 1253.2     |   7.9 | 70.23
Other   |            | 2.891      |            |       |  0.16

Nlocal:         246.75 ave         256 max         239 min
Histogram: 1 0 0 1 1 0 0 0 0 1
Nghost:        3682.25 ave        3709 max        3659 min
Histogram: 1 0 1 0 0 1 0 0 0 1
Neighs:          51685 ave       53256 max       50447 min
Histogram: 1 1 0 0 0 1 0 0 0 1

Total # of neighbors = 206740
Ave neighs/atom = 209.46302
Ave special neighs/atom = 2
Neighbor list builds = 512500
Dangerous builds = 0
    write_data      last_snap.data nocoeff nofix
System init for write_data ...
PPPM initialization ...
  using 12-bit tables for long-range coulomb
  G vector (1/distance) = 0.19302138
  grid = 9 9 9
  stencil order = 5
  estimated absolute RMS force accuracy = 0.022031744
  estimated relative force accuracy = 6.6347942e-05
  using double precision FFTW3
  3d grid and FFT values/proc = 1400 225
Generated 10 of 10 mixed pair_coeff terms from arithmetic mixing rule
0 atoms in group FixGCMC:rotation_gas_atoms:co2gcmc
0 atoms in group FixGCMC:rotation_gas_atoms:acngcmc
WARNING: Neighbor exclusions used with KSpace solver may give inconsistent Coulombic energies (src/neighbor.cpp:664)


Total wall time: 0:29:41
