LAMMPS data file via write_data, version 4 Jul 2026, timestep = 1000000, units = real

1032 atoms
5 atom types
688 bonds
3 bond types
344 angles
2 angle types

0 30 xlo xhi
0 30 ylo yhi
0 30 zlo zhi

Masses

1 15.035
2 12.0107
3 14.0067
4 12.0107
5 15.9994

Atoms # full

179 60 2 0.129 6.745268194086953 6.808522524197427 3.549187108154609 0 0 0
379 127 1 0.269 0.6240584137225708 5.6458990842170556 4.39395932424165 0 1 0
259 87 1 0.269 4.25151268923116 2.6168239644247304 3.3345977215247187 0 1 -1
180 60 3 -0.398 6.560713064253409 5.668468010200449 3.4794439424208665 0 0 0
260 87 2 0.129 5.1178878801134315 1.389186508710732 2.997106527638571 0 1 -1
590 197 2 0.129 2.5300785550473077 5.817079640203219 1.6971350175964353 0 0 1
324 108 3 -0.398 1.753108616562877 6.951047575787149 7.012945007026541 0 0 0
589 197 1 0.269 1.8838332098295127 4.958938970049023 0.5937033051588949 0 0 1
742 248 1 0.269 0.5248020800056792 1.2823653251183864 6.5354978849364365 0 1 1
519 173 3 -0.398 6.581422724959492 1.7271365215457368 6.368431009844945 0 1 1
518 173 2 0.129 6.569512424573466 2.874356416109972 6.518076117555811 0 1 1
517 173 1 0.269 6.553659475053599 4.401338816826408 6.7172580241026765 0 1 1
380 127 2 0.129 0.7087738923043964 4.148045632341679 4.046312485634863 0 1 0
381 127 3 -0.398 0.7724205213428199 3.0227102792119322 3.785125867278986 0 1 0
261 87 3 -0.398 5.7687944358606975 0.4668640825671624 2.7435498319721625 0 1 -1
591 197 3 -0.398 3.0156018436297654 6.4617996112216645 2.5261418301225658 0 0 1
486 162 3 -0.398 5.276204096223236 7.342479449757055 7.294145797248165 0 0 1
789 263 3 -0.398 1.6375486943494313 2.0141206613082967 0.3233476769614881 0 0 0
524 175 2 0.129 9.292479607933588 6.923157808639895 6.234625002550478 0 0 1
525 175 3 -0.398 9.134632542142816 6.261748474853055 5.298531525914256 0 0 1
430 144 1 0.269 9.157270413005218 3.649014678933244 3.8250350611493404 0 0 0
431 144 2 0.129 9.570664385848254 3.158967661505561 5.225234812587154 0 0 0
748 250 1 0.269 12.68768347282284 4.961296256457916 6.792341470481655 0 0 1
432 144 3 -0.398 9.881246740769937 2.790795973736839 6.277203067401147 0 0 0
1029 343 5 -0.35 12.944243346258153 4.582950193840718 1.2838477040094387 -1 2 1
1027 343 4 0.7 12.507589175966393 3.535886423365588 1.5259026484455396 -1 2 1
1028 343 5 -0.35 12.07093500567464 2.488822652890465 1.767957592881644 -1 2 1
749 250 2 0.129 12.638976506270435 4.345548012809141 5.381638903725042 0 0 1
316 106 1 0.269 11.281347238280697 7.210497889969659 2.4453590664492095 0 0 0
750 250 3 -0.398 12.602383025555417 3.8829371570288624 4.321779897402052 0 0 1
946 316 1 0.269 14.80639256414101 1.0246819570098213 7.384506894451205 0 1 1
889 297 1 0.269 8.233698573698526 5.161915380166871 0.5229784859998177 0 0 1
966 322 5 -0.35 8.690241052351732 0.19659667449728924 4.480036431859074 0 1 0
265 89 1 0.269 12.237611755592544 0.7116257013920961 4.358847420132425 0 0 0
842 281 2 0.129 8.099193054398738 0.8833417251970278 0.43935050520578733 0 0 1
241 81 1 0.269 15.503080693821184 4.107679521956017 3.1934780573183184 0 1 0
42 14 3 -0.398 18.691515604493365 3.619212903293409 2.770347427768066 0 1 1
219 73 3 -0.398 21.24203800104597 1.5937118725750878 3.5404784681830437 0 1 0
218 73 2 0.129 20.304509701907737 1.565098654070576 4.21787862469443 0 1 0
242 81 2 0.129 15.603255141151854 2.6048176753302057 3.5143695499714673 0 1 0
243 81 3 -0.398 15.678516073334698 1.4757195217288661 3.755454911659583 0 1 0
799 267 1 0.269 19.02417664411964 5.302269310151243 6.1245161495134655 0 1 1
217 73 1 0.269 19.05663279553532 1.5270136441337168 5.119517553845281 0 1 0
948 316 3 -0.398 16.741343208566157 2.771356744355807 6.6924793004280385 0 1 1
947 316 2 0.129 15.911258708899899 2.022041679854765 6.98935580257294 0 1 1
800 267 2 0.129 18.77800225927889 6.645203482414757 6.836924726955877 0 1 1
40 14 1 0.269 20.800914144182666 4.916736994157146 1.7023221310691212 0 1 1
41 14 2 0.129 19.596437410359336 4.17584448398653 2.3121697235483105 0 1 1
81 27 3 -0.398 22.167429116691117 5.609767119805179 4.8079589000825145 -1 0 0
690 230 3 -0.398 17.196228238050686 7.46291808829172 3.0755371466932004 0 0 1
133 45 1 0.269 19.725387849540528 1.01923941723405 0.5532680669561887 0 0 1
688 230 1 0.269 15.610925390970616 7.337216058348889 5.2537985824972635 0 0 1
689 230 2 0.129 16.516140958083447 7.4089925233514675 4.010000803061498 0 0 1
1017 339 5 -0.35 18.205960245089102 6.761078625433167 0.5926299712059879 0 1 1
387 129 3 -0.398 29.001020684428703 6.853631696317165 1.463860963467372 0 1 0
637 213 1 0.269 27.96792636981249 3.730429842453691 1.5115747303701454 1 1 1
740 247 2 0.129 28.612164758653332 3.8457051028563467 7.442649490650872 0 1 0
739 247 1 0.269 27.31328077780041 3.5699156979997193 6.662623460026005 0 1 0
301 101 1 0.269 23.85501360597413 0.23568500816489973 1.9026084588067294 0 0 0
302 101 2 0.129 25.11660757886434 0.6713099675681388 2.6708607235695427 0 0 0
79 27 1 0.269 23.462529390519904 3.5497850871854455 5.971143453800519 -1 0 0
80 27 2 0.129 22.723020891559454 4.7260447572760595 5.306959466879598 -1 0 0
303 101 3 -0.398 26.06444149226303 0.9985944338210927 3.2480476523556394 0 0 0
764 255 2 0.129 26.11217221313695 6.457593897723195 2.787374938008545 0 0 1
763 255 1 0.269 25.47169776322272 6.65712709524757 1.401164642962886 0 0 1
743 248 2 0.129 29.331592772106674 0.3210441951555122 6.689488899712272 -1 1 1
765 255 3 -0.398 26.593359835572514 6.307684865557145 3.8288329324032415 0 0 1
638 213 2 0.129 27.118465221893175 2.6386176676497732 0.8348458828063566 1 1 1
639 213 3 -0.398 26.480266164657692 1.81834059865748 0.32642037850031425 1 1 1
178 60 1 0.269 6.990916335784156 8.325967599007575 3.642017250963569 0 0 0
323 108 2 0.129 2.309291643144257 7.8804430381959225 6.606086904741314 0 0 0
322 108 1 0.269 3.0495871149984706 9.117494906916328 6.064547166176704 0 0 0
16 6 1 0.269 5.352855231468776 14.043549591275927 4.496707869029436 1 1 0
17 6 2 0.129 5.443633419508782 12.819335583164582 3.5668372420477565 1 1 0
18 6 3 -0.398 5.511834954289488 11.899585188758852 2.868226647620616 1 1 0
293 98 2 0.129 1.7827298977002881 10.383117457803177 2.463337768672956 1 1 0
292 98 1 0.269 3.2143001313680655 10.11281274960763 1.964196475245578 1 1 0
294 98 3 -0.398 0.7071930403278004 10.586197034025421 2.8383419741894977 1 1 0
312 104 3 -0.398 2.225842247149079 14.478792088062686 2.280236157094275 1 0 0
22 8 1 0.269 6.610274715738347 10.45500640972691 0.08572441237989559 0 0 0
94 32 1 0.269 0.5164535831709283 13.067723012904722 4.64744469572088 0 0 0
95 32 2 0.129 0.6689648946419802 12.050994474649306 5.794006241984198 0 0 0
96 32 3 -0.398 0.7835464448835462 11.287127644284684 6.655416442650855 0 0 0
780 260 3 -0.398 4.605241022975788 14.212237879836024 7.497255084091362 1 0 1
527 176 2 0.129 12.888208217222559 14.553856253365879 4.409013179639707 0 0 1
317 106 2 0.129 10.4217332060634 8.133794485764824 1.5620770549674445 0 0 0
521 174 2 0.129 8.406353647491157 14.777899891712142 2.0486462692776315 0 0 1
520 174 1 0.269 9.715015883954038 14.007248915573427 1.7934988142001236 0 0 1
193 65 1 0.269 9.314413127484972 12.741941607642321 5.331604725172934 0 0 0
318 106 3 -0.398 9.775906300040406 8.827466019099244 0.8984684268606977 0 0 0
523 175 1 0.269 9.502578554621378 7.803512496653494 7.480592119248652 0 0 1
194 65 2 0.129 9.689047834595138 11.260232959497525 5.142426718411379 0 0 0
195 65 3 -0.398 9.97051040350842 10.147027176443288 5.000297527617145 0 0 0
201 67 3 -0.398 12.793605413082632 8.598041789375845 6.529627209527871 0 1 0
658 220 1 0.269 13.071710482699853 10.499309374187524 3.682778513317082 0 0 0
659 220 2 0.129 12.653552704994459 11.414066681430866 2.5166039372828832 0 0 0
660 220 3 -0.398 12.339391309666441 12.101322658366282 1.6404584928208248 0 0 0
528 176 3 -0.398 11.926569907750379 13.928062787697852 4.259737260338261 0 0 1
200 67 2 0.129 12.627270568807356 9.606093664333367 7.072594185480252 0 1 0
801 267 3 -0.398 18.593051763655023 7.654148181965985 7.372156365982418 0 1 1
49 17 1 0.269 15.64101387217178 11.791238143810833 6.721628490352017 -1 0 0
403 135 1 0.269 15.330705335928284 13.779323286892982 0.6893297941723523 0 -1 0
808 270 1 0.269 20.001106577326777 8.710858714194504 2.476376819519626 0 0 1
862 288 1 0.269 18.728342514986213 12.628453897222254 3.3580201956708358 0 1 1
863 288 2 0.129 17.543315676274705 11.664595625944637 3.553694988179584 0 1 1
864 288 3 -0.398 16.65300655134665 10.940450158497747 3.700705205668297 0 1 1
132 44 3 -0.398 19.264817267418266 12.601385955578962 6.475540959856874 0 0 0
931 311 1 0.269 15.689980632394517 9.695976152299433 0.7956677135056625 0 1 1
809 270 2 0.129 21.442310352705316 8.864900676882625 1.9559897024940547 0 0 1
233 78 2 0.129 22.180055458611537 14.35451295803295 6.253525093532335 0 1 0
1025 342 5 -0.35 20.99909069745204 14.706592317523073 2.324210950104202 -1 0 1
995 332 5 -0.35 22.340934654539893 11.750683903507463 0.5192145801106194 0 1 0
932 311 2 0.129 17.144632325215188 10.16963970925433 0.6189439533946263 0 1 1
933 311 3 -0.398 18.237510252873314 10.525502524447065 0.4861716219345826 0 1 1
386 129 2 0.129 29.26315609539479 7.645558193419683 0.662121323992069 0 1 0
996 332 5 -0.35 23.21638289438846 12.30460915833957 2.5950655360807753 0 1 0
506 169 2 0.129 26.31439529798738 14.615846915803147 4.630039247879489 -1 0 0
810 270 3 -0.398 22.525084877454002 8.980632203395707 1.5650235373001664 0 0 1
376 126 1 0.269 28.405995730737697 8.389279876550303 5.865297304238514 0 0 0
377 126 2 0.129 27.30109721396319 7.877951068467943 6.808346676039658 0 0 0
232 78 1 0.269 22.733055169171006 13.151350355432704 7.039776371319895 0 1 0
516 172 3 -0.398 27.10995467659509 10.731349617488076 1.0186274856216906 0 1 1
994 332 4 0.7 22.778658774464176 12.027646530923517 1.5571400580956973 0 1 0
225 75 3 -0.398 24.51701617145644 10.37567343315522 6.607897274387265 -1 0 0
224 75 2 0.129 24.417205684242933 9.440325505366394 5.934242228667239 -1 0 0
514 172 1 0.269 26.341099565546074 11.097340249756867 3.57767451045506 0 1 1
515 172 2 0.129 26.78011953996783 10.888357834594123 2.116446324232075 0 1 1
223 75 1 0.269 24.284355078963074 8.195350735448683 5.0375881487978855 -1 0 0
71 24 2 0.129 25.271054662848414 13.904267807083732 0.0523304992380601 0 0 0
72 24 3 -0.398 24.928494563317404 14.024639631812553 1.1508805445343622 0 0 0
268 90 1 0.269 29.775574294181304 12.990604323810132 0.23679358802970318 -1 0 0
507 169 3 -0.398 27.317905382423444 14.108427070583256 4.902328820048849 -1 0 0
785 262 2 0.129 2.1826770705970846 0.9780326984659786 11.642198502887416 1 0 0
784 262 1 0.269 1.3607725520966722 0.2508474418674077 10.561793687526995 1 0 0
828 276 3 -0.398 3.321908112249031 2.9037677831008013 9.188944714635957 0 1 0
827 276 2 0.129 3.443045277212273 4.054351374674585 9.177447494714313 0 1 0
826 276 1 0.269 3.60428229885738 5.58581095205024 9.162144367074445 0 1 0
166 56 1 0.269 6.143810658816429 2.9464874551251015 11.456840643945663 1 0 0
167 56 2 0.129 6.939220365948599 4.082419063425975 10.787077417826891 1 0 0
374 125 2 0.129 4.031108895525202 3.638452409661261 14.450025183149679 0 1 0
375 125 3 -0.398 4.322953768842824 4.448122361667399 13.676778690279571 0 1 0
791 264 2 0.129 0.29524278733376536 5.332990690716808 11.184378215727145 0 1 0
790 264 1 0.269 0.7506685923064493 3.8651180096553155 11.28203643788719 0 1 0
786 262 3 -0.398 2.800172867937979 1.524366037352046 12.453905237544562 1 0 0
668 223 2 0.129 6.699408890042909 1.0316165565898239 14.315543091377142 1 0 0
669 223 3 -0.398 7.047209286848144 2.1350956056257724 14.31131552463752 1 0 0
394 132 1 0.269 2.643966719848054 7.3968068423435716 13.658467048093732 0 1 -1
168 56 3 -0.398 7.536810645917381 4.935843005506568 10.283885175866232 1 0 0
204 68 3 -0.398 11.065395484760161 0.5418675761758627 11.811586919231774 1 1 -1
88 30 1 0.269 9.060595561060822 7.2704521744335295 11.282090354628915 1 0 0
992 331 5 -0.35 13.946271063764906 6.0395524964727905 10.945785385097773 0 1 0
991 331 4 0.7 13.046590235243228 6.447762551546713 10.337888224611238 0 1 0
993 331 5 -0.35 12.146909406721553 6.855972606620631 9.729991064124702 0 1 0
758 253 2 0.129 13.788427489755733 2.8756180437213 10.126691743157814 0 0 0
759 253 3 -0.398 12.905703604595567 2.8661154499185812 9.37878984900455 0 0 0
364 122 1 0.269 9.883272679223165 0.734246132079473 8.399703393471604 0 0 0
61 21 1 0.269 13.087529608089572 3.047065859067961 14.036461349961629 0 1 0
62 21 2 0.129 13.994269461481268 3.9090715408707792 14.934441885836614 0 1 0
757 253 1 0.269 14.963358157989662 2.888266267106079 11.12217049596336 0 0 0
1041 347 5 -0.35 17.419491171054844 3.013150597491473 13.018214264712661 -1 1 0
822 274 3 -0.398 22.11908246654305 0.6811028562106192 7.972355042888626 0 0 1
305 102 2 0.129 17.914990854874 0.5524358132477526 9.706229666589113 0 0 0
1040 347 5 -0.35 19.726321489566594 3.0234766767903976 13.264846082787269 -1 1 0
280 94 1 0.269 17.8803913956719 4.1803356349357434 9.895668435663191 0 1 0
281 94 2 0.129 19.39788140816107 4.311997315545679 9.668755977093106 0 1 0
732 244 3 -0.398 15.19535096636474 6.472161212048617 8.432934563110072 -1 1 0
282 94 3 -0.398 20.537969683777934 4.410914565198726 9.498276941660913 0 1 0
1011 337 5 -0.35 21.87402427521104 6.327698701300622 14.13869950437633 0 0 0
306 102 3 -0.398 17.226567454281046 0.7076463957414277 10.623089468629171 0 0 0
1009 337 4 0.7 22.259663342095916 5.431542235120236 13.511175721388081 0 0 0
1039 347 4 0.7 18.572906330310722 3.0183136371409334 13.141530173749965 -1 1 0
922 308 1 0.269 22.14783256607174 6.8281544688406886 8.47552167214156 0 0 1
481 161 1 0.269 21.948833675776857 1.33113359308577 14.715759191587003 0 0 0
237 79 3 -0.398 18.196633389639338 6.196425382498209 12.297517052485455 0 0 0
304 102 1 0.269 18.831302036302823 0.3458461010262657 8.485863119362067 0 0 0
821 274 2 0.129 22.48903322499073 1.3040237932659868 8.874438710018474 0 0 1
731 244 2 0.129 15.700997781914415 7.366561817447184 8.964928787690981 -1 1 0
236 79 2 0.129 18.48784762866854 7.307741270057139 12.160330081363847 0 0 0
378 126 3 -0.398 26.47098839324364 7.493790399019049 7.516858444334416 0 0 0
792 264 3 -0.398 29.95308197151987 6.435801529670151 11.111007720247164 -1 1 0
741 247 3 -0.398 29.58801460660582 4.0529053245570665 8.02868203443851 0 1 0
1010 337 5 -0.35 22.645302408980793 4.5353857689398485 12.883651938399835 0 0 0
984 328 5 -0.35 25.901114055574887 0.6979475290479995 10.026836936696402 0 1 0
561 187 3 -0.398 28.298330003621636 1.6899308650941507 11.839648216003283 -1 1 0
560 187 2 0.129 28.803588335011106 1.7753185316706508 12.87698710226881 -1 1 0
482 161 2 0.129 22.92356976289435 0.6214204088153339 13.757742095422604 0 0 0
820 274 1 0.269 22.981448236234836 2.1331493274624163 10.075137800234518 0 0 1
483 161 3 -0.398 23.6558877192547 0.08821381517838844 13.03798509525234 0 0 0
677 226 2 0.129 25.54331517595282 4.836126672937044 9.357205717096319 -1 0 0
678 226 3 -0.398 24.86436907018647 4.168504006605806 8.69996819468545 -1 0 0
676 226 1 0.269 26.44701180765566 5.724751483784157 10.232007605179923 -1 0 0
559 187 1 0.269 29.476101585088703 1.8889719513143992 14.25771474690918 -1 1 0
444 148 3 -0.398 29.661473521002932 5.011100891464755 14.955329652964565 -1 1 0
861 287 3 -0.398 26.124412698432725 1.6839632486960872 14.98454635243712 -1 1 0
860 287 2 0.129 26.24131091739642 2.835008533623636 14.993409672912241 -1 1 0
90 30 3 -0.398 6.5322607287381125 7.77473586839822 12.073942570424915 1 0 0
703 235 1 0.269 0.6584286551636841 11.160128987253058 13.041174133413133 1 0 1
395 132 2 0.129 3.5391027127757377 7.9557151622766415 14.780052106871326 0 1 -1
485 162 2 0.129 5.787260396525202 8.158105974206254 7.936192392547847 0 0 1
783 261 3 -0.398 2.803074290594056 9.052550611120523 10.704230072355713 0 0 0
782 261 2 0.129 1.778636605502928 9.252110396116565 10.204878170809927 0 0 0
781 261 1 0.269 0.4150808275942528 9.517730161798422 9.540226547317696 0 0 0
484 162 1 0.269 6.467490908595234 9.243728141580302 8.790774723370237 0 0 1
778 260 1 0.269 3.037408261119319 12.673347661767313 9.061712283117245 1 0 1
779 260 2 0.129 3.932648325360683 13.552061393997876 8.16839968152293 1 0 1
838 280 1 0.269 4.341936660627646 11.307302622485567 13.020618268130733 0 0 0
839 280 2 0.129 5.653035567083393 11.838720151712202 12.412165256698819 0 0 0
882 294 3 -0.398 2.6573587591095937 14.518757812748241 13.25738723558315 1 1 0
881 294 2 0.129 2.7300582465347083 14.235204146343113 14.376744686443322 1 1 0
704 235 2 0.129 0.9013387668977699 10.446165475253267 14.383876922994936 1 0 1
840 280 3 -0.398 6.638062472777737 12.237973451267539 11.955035299408735 0 0 0
908 303 2 0.129 12.706239341220481 14.785903095657009 7.978430867833272 0 0 1
682 228 1 0.269 8.09655537758862 9.373409090071597 14.420255403686173 0 0 1
89 30 2 0.129 7.616904184799429 7.5584005944207835 11.734241786711168 1 0 0
401 134 2 0.129 14.309995324088455 11.426389410778365 14.726271964988191 0 0 0
909 303 3 -0.398 13.471249326145587 13.938568808350233 7.79019344190813 0 0 1
906 302 3 -0.398 11.846840628883346 7.686901236204755 13.18221121276464 0 1 0
199 67 1 0.269 12.40587414686792 10.947839461597486 7.795298716998545 0 1 0
905 302 2 0.129 12.889025909323342 7.7445881441835125 13.681381586367227 0 1 0
297 99 3 -0.398 9.083461317785934 11.020953464391244 8.76490272196373 0 0 0
296 99 2 0.129 8.81103985377884 12.13088087280591 8.945171116305188 0 0 0
295 99 1 0.269 8.448439115169572 13.608225910799497 9.18511349079598 0 0 0
45 15 3 -0.398 13.624836103520181 10.123133319969153 11.215130576447667 0 0 0
44 15 2 0.129 12.509374225598298 10.262003059133551 11.489190778678319 0 0 0
353 118 2 0.129 13.108454290690723 14.006297330326785 11.66237085086485 0 1 0
43 15 1 0.269 11.024662650836245 10.446842642809592 11.853972724603294 0 0 0
352 118 1 0.269 14.634573142318814 13.848760330439292 11.529166705379508 0 1 0
28 10 1 0.269 9.138963140861694 13.958085741633058 13.215272371225762 0 0 0
354 118 3 -0.398 11.96188317943507 14.124654673748754 11.762446952375587 0 1 0
904 302 1 0.269 14.276204242838972 7.821371064051519 14.345791590989506 0 1 0
683 228 2 0.129 8.901780305207588 10.564256377064835 14.972609959202595 0 0 1
50 17 2 0.129 16.13670487398194 12.037156263322949 8.158783565220675 -1 0 0
340 114 1 0.269 21.721174449238216 9.557074940222396 14.872488441543219 0 1 0
402 134 3 -0.398 15.361758383356817 11.047920702956816 14.427600064136321 0 0 0
51 17 3 -0.398 16.50911687988737 12.221914227138221 9.23851630653434 -1 0 0
131 44 2 0.129 19.49964324808679 12.184651989574542 7.529029716504011 0 0 0
1049 350 5 -0.35 21.343938208805923 14.699538371926069 10.205510553481723 0 0 0
730 244 1 0.269 16.374028115489605 8.5570345333623 9.673028274168605 -1 1 0
130 44 1 0.269 19.81220332607255 11.629967194719914 8.931253299249553 0 0 0
235 79 1 0.269 18.875462086840503 8.786934413394002 11.977730309948749 0 0 0
753 251 3 -0.398 18.572034248208524 11.85340130399223 11.73412244794871 0 0 1
752 251 2 0.129 18.484155450827373 12.582185453796022 12.628437817360446 0 0 1
751 251 1 0.269 18.367186265030508 13.552217943595366 13.818797081745982 0 0 1
831 277 3 -0.398 21.45614986228909 13.969845986448812 14.176272657169331 0 0 0
923 308 2 0.129 22.15147843016235 8.297917992292893 8.935284537980802 0 0 1
924 308 3 -0.398 22.154217563118735 9.402149418678734 9.280703781991194 0 0 1
830 277 2 0.129 22.33719324189058 13.96603223359737 14.926203999726297 0 0 0
159 53 3 -0.398 29.39308553108911 12.50509951874537 9.696841681629087 0 0 -1
158 53 2 0.129 28.58586779441603 12.63086790927249 8.877554895732583 0 0 -1
597 199 3 -0.398 25.727919062107546 13.77562726872647 12.529190397671993 0 0 0
596 199 2 0.129 24.796915522965556 13.10572047355073 12.37718284561347 0 0 0
157 53 1 0.269 27.51143796340778 12.798269224235119 7.78706081597406 0 0 -1
46 16 1 0.269 25.425498299353524 8.205065371852989 14.070341596497839 -1 1 0
47 16 2 0.129 24.234938817123762 8.298272444537076 13.097983349309098 -1 1 0
48 16 3 -0.398 23.340473024305684 8.368298797196484 12.36745186099912 -1 1 0
502 168 1 0.269 28.474192673722726 14.490124896088446 13.761846919177383 -1 0 0
231 77 3 -0.398 27.56035895816803 9.267101067273884 11.687749519325353 0 1 0
595 199 1 0.269 23.55772325824761 12.214055422063575 12.174856458258134 0 0 0
229 77 1 0.269 25.703038138386397 9.870314630429814 9.827560881141922 0 1 0
230 77 2 0.129 26.76357727908485 9.525876778275517 10.88973755997117 0 1 0
1030 344 4 0.7 3.801903192365042 2.3518646563576127 19.569569938780983 0 0 0
1031 344 5 -0.35 4.0142535942136615 3.422095391323609 19.175725450731147 0 0 0
1032 344 5 -0.35 3.5895527905164215 1.2816339213916146 19.963414426830816 0 0 0
156 52 3 -0.398 6.234000803322891 1.0296705110427862 22.050504631038212 1 1 -1
155 52 2 0.129 5.394454902353768 0.34614256973241436 22.45867277483878 1 1 -1
769 257 1 0.269 6.980134409686031 4.561809046800669 21.980947524824074 1 0 0
835 279 1 0.269 4.104869641259691 7.328822821665894 18.514301530798477 0 0 -1
477 159 3 -0.398 1.1718459211375236 2.9713903079184516 19.277374779404486 1 0 0
373 125 1 0.269 3.6426550451283664 2.560758610102528 15.479238319727008 0 1 0
476 159 2 0.129 0.10558544825368907 3.008580802075766 18.829765048601566 1 0 0
547 183 1 0.269 2.0917212218001744 4.85793525413572 21.770000567888555 1 0 0
118 40 1 0.269 6.898963439031498 5.401477693782663 15.117109039370915 0 1 -1
936 312 3 -0.398 7.281544345982491 7.336995763045762 19.726548743246383 1 1 -1
770 257 2 0.129 8.152701213959748 4.524492014607033 20.98330303472658 1 0 0
771 257 3 -0.398 9.03364913119656 4.496455776783636 20.23377402495852 1 0 0
120 40 3 -0.398 9.125347943658747 6.705999823024227 15.901483345348524 0 1 -1
119 40 2 0.129 8.1702397227267 6.146366117598759 15.564990548902065 0 1 -1
106 36 1 0.269 8.022655137550323 1.4275446588057827 18.908242843509345 1 1 -1
10 4 1 0.269 11.788473202481624 6.274465631732761 17.498486983172754 0 1 -1
663 221 3 -0.398 14.931310798865773 4.100177125493261 20.55036148559698 0 1 -1
11 4 2 0.129 11.656930554459953 4.743095377599598 17.59441235264057 0 1 -1
662 221 2 0.129 14.995675380503949 5.237816307362415 20.349654503887187 0 1 -1
702 234 3 -0.398 11.182361791795438 0.8395137964392008 19.513234986718857 0 1 0
701 234 2 0.129 12.182017656603312 0.9926957488556416 18.95120968354435 0 1 0
440 147 2 0.129 10.3683282806601 0.5976194003353863 15.695984750321832 0 0 -1
709 237 1 0.269 11.796569750755307 5.568608054863304 21.827329502916065 0 0 0
700 234 1 0.269 13.512588124886918 1.1965852965836647 18.203137974911037 0 1 0
12 4 3 -0.398 11.558102733835883 3.5925788944618873 17.66648095814334 0 1 -1
63 21 3 -0.398 14.675501935750225 4.556695290121337 15.609093496231006 0 1 0
580 194 1 0.269 9.240800632656587 1.5015420384884122 22.334311004869495 0 1 0
439 147 1 0.269 9.774268061606906 2.0184043054439385 15.703903686712993 0 0 -1
107 36 2 0.129 7.966725267012518 0.21775451947041136 17.956991211000823 1 1 -1
661 221 1 0.269 15.081346474473515 6.752046506220239 20.082507786658937 0 1 -1
625 209 1 0.269 16.47721269190814 2.779607540598269 17.873878560785112 0 0 -1
626 209 2 0.129 17.242591581824225 3.275452352282255 16.632938160282798 0 0 -1
627 209 3 -0.398 17.817619747819627 3.647979915346137 15.70062124899632 0 0 -1
1042 348 4 0.7 18.413504791314736 5.7763282543834675 20.88235639197319 0 1 1
38 13 2 0.129 21.28581294435198 4.368725495955946 16.890449569930155 0 1 0
37 13 1 0.269 20.29064304336663 4.322223212489566 18.064789557244147 0 1 0
39 13 3 -0.398 22.033482798533836 4.403662601131658 16.008169462578017 0 1 0
852 284 3 -0.398 21.002263842722268 0.8387728128212619 19.589125962915126 -1 1 0
1044 348 5 -0.35 18.26477598536669 4.69065848352747 20.501829269509713 0 1 1
673 225 1 0.269 17.83819166952089 1.7465268941199301 21.327473478488447 0 1 0
457 153 1 0.269 18.752443514751658 6.922911941661563 15.784641838971512 0 1 -1
459 153 3 -0.398 17.457643331561208 6.840975336384375 18.14908424222996 0 1 -1
458 153 2 0.129 18.013106368992187 6.876125745099877 17.13474984824775 0 1 -1
1043 348 5 -0.35 18.562233597262786 6.861998025239468 21.262883514436663 0 1 1
794 265 2 0.129 22.4315683258358 4.075847630994248 21.34690415000726 0 1 0
795 265 3 -0.398 22.17851227926322 5.062847379677696 20.79877721818188 0 1 0
443 148 2 0.129 29.417230950661967 5.9168988281338155 15.632474146229686 -1 1 0
442 148 1 0.269 29.09213712324184 7.122541717045098 16.53377278030773 -1 1 0
298 100 1 0.269 26.4055074175665 0.460804492489434 20.91028670682652 0 0 0
343 115 1 0.269 23.807494398668968 6.452742262933819 18.518458132490476 0 1 0
344 115 2 0.129 25.173354711675373 6.6107168707748185 17.824866301056502 0 1 0
415 139 1 0.269 24.35682325196673 1.3335883019086692 18.09132607494615 0 1 0
345 115 3 -0.398 26.199523790992522 6.729402988483931 17.30377165886877 0 1 0
532 178 1 0.269 26.677350812674565 5.4903353216824335 21.16461324387136 0 1 0
416 139 2 0.129 24.993716495000957 2.677346363857732 18.491677505470975 0 1 0
475 159 1 0.269 28.686362346921705 3.0580824105479048 18.233983730160347 0 0 0
417 139 3 -0.398 25.472213561358494 3.6869100506597166 18.79246101528736 0 1 0
533 178 2 0.129 26.46671250579183 4.1876037836769475 21.95841551368421 0 1 0
255 85 3 -0.398 29.24022891796085 6.96573291892104 20.376458594220455 -1 0 -1
729 243 3 -0.398 29.458686670139546 0.3097261174742507 17.02173744018309 0 1 0
859 287 1 0.269 26.396905781012734 4.367082638021584 15.005207005264602 -1 1 0
793 265 1 0.269 22.76839314149852 2.7621228142505094 22.076476729964973 0 1 0
396 132 3 -0.398 4.211617221748025 8.375622257187395 15.62269750492696 0 1 -1
6 2 3 -0.398 4.561210227188464 14.619238576991998 21.587269821300232 0 0 -1
836 279 2 0.129 3.6967707387671913 8.368208506026365 19.574835681559726 0 0 -1
837 279 3 -0.398 3.390166563323156 9.149097620834848 20.37161361170957 0 0 -1
5 2 2 0.129 4.688098099405765 13.5272487488723 21.226566781158805 0 0 -1
4 2 1 0.269 4.856989476427925 12.073779141867693 20.74646074674411 0 0 -1
25 9 1 0.269 5.435690275448621 10.789751345723774 17.408637986882766 0 0 0
197 66 2 0.129 1.757966675879725 11.502327239525103 18.681551018229612 0 0 -1
930 310 3 -0.398 7.446633194526039 14.132562942491798 19.807304958390063 0 0 0
198 66 3 -0.398 2.4737530770879026 12.409367392202757 18.74135895479628 0 0 -1
27 9 3 -0.398 6.012419333700236 12.586058228978354 15.481340870573163 0 0 0
26 9 2 0.129 5.765005347642722 11.815451234567695 16.308142043569166 0 0 0
196 66 1 0.269 0.8052345601834453 10.29503092567585 18.601944948815035 0 0 -1
55 19 1 0.269 0.41365214244634463 13.577326449394198 21.283455032223763 1 0 -1
705 235 3 -0.398 1.083836818375912 9.90976561591316 15.392647785037886 1 0 1
880 294 1 0.269 2.8268233378352114 13.857786128828943 15.866641379895928 1 1 0
253 85 1 0.269 0.4632108563329327 8.555744469896531 22.179230750146175 0 0 -1
803 268 2 0.129 12.009897103712067 14.625621256799377 20.127905628350206 0 1 0
934 312 1 0.269 9.351708633868377 8.389905440322288 18.35556003699693 1 1 -1
1001 334 5 -0.35 7.74898433779682 10.978265503274594 20.569396408228812 1 0 -1
935 312 2 0.129 8.16963484694058 7.788688939393159 19.138401196664766 1 1 -1
1002 334 5 -0.35 9.33029316634255 12.432223009328037 21.445678303141634 1 0 -1
939 313 3 -0.398 12.056228448645955 9.585931543620573 18.515503638229134 0 1 0
937 313 1 0.269 12.65397666589552 10.468368392204455 20.99296428918534 0 1 0
938 313 2 0.129 12.312659552597664 9.964492698166943 19.57832231570646 0 1 0
990 330 5 -0.35 9.546785882883505 14.014215693672336 17.050112648153107 0 1 0
988 330 4 0.7 9.444899763301425 12.980088976132123 17.565671714319212 0 1 0
989 330 5 -0.35 9.343013643719349 11.945962258591907 18.081230780485317 0 1 0
1000 334 4 0.7 8.539638752069688 11.705244256301317 21.00753735568522 1 0 -1
400 134 1 0.269 12.91006869377447 11.930142055588378 15.123812783753857 0 0 0
684 228 3 -0.398 9.506744747581061 11.458938397227941 15.387593219418498 0 0 1
804 268 3 -0.398 12.63585972115315 14.306084687750863 19.208821202082405 0 1 0
369 123 3 -0.398 21.617762711233926 8.54170577814699 17.79650387472914 0 1 0
126 42 3 -0.398 16.41258175084022 14.16197729227229 16.262698492464406 0 0 0
368 123 2 0.129 20.921640869925923 8.904820261959944 18.64633400699017 0 1 0
161 54 2 0.129 16.377312595595008 10.164707308450339 20.877271987334506 0 0 -1
162 54 3 -0.398 15.701836338483947 10.372978340171453 19.961300370184144 0 0 -1
367 123 1 0.269 19.99508284433015 9.388135996680722 19.77748215191842 0 1 0
342 114 3 -0.398 19.774712831431533 10.991610806809552 16.06714446646337 0 1 0
124 42 1 0.269 17.064114442797386 11.807375975423687 17.405137458014426 0 0 0
125 42 2 0.129 16.692086135191147 13.151864676924188 16.752799301934694 0 0 0
849 283 3 -0.398 18.572317222705372 12.494101047473217 20.234573329737398 0 0 0
848 283 2 0.129 19.65721859737944 12.639678076493725 19.859812958496025 0 0 0
847 283 1 0.269 21.101253270670774 12.833445254273824 19.360996215443542 0 0 0
341 114 2 0.129 20.609735483193617 10.376201834751216 15.554642790218423 0 1 0
562 188 1 0.269 15.694302301472147 14.091855985697746 20.252753014117246 1 1 0
693 231 3 -0.398 22.172434217866144 14.97368985035366 21.464389726475407 -1 0 0
160 54 1 0.269 17.276390759770493 9.887492624914888 22.09645633514052 0 0 -1
254 85 2 0.129 29.764882274540938 7.647840210162658 21.149839159443314 -1 0 -1
825 275 3 -0.398 22.730536512115346 9.757943450139367 22.03896116057397 0 0 0
692 231 2 0.129 22.56276931162039 14.46037455762901 22.425011881559293 -1 0 0
510 170 3 -0.398 25.073310327509905 11.111385094962852 15.399784028981653 -1 0 0
745 249 1 0.269 26.30200270206937 10.162012298294325 22.347785223682553 -1 0 0
509 170 2 0.129 25.80962225987696 10.728014835870972 16.205712675139186 -1 0 0
508 170 1 0.269 26.78967444297572 10.217738086517908 17.278426689903746 -1 0 0
747 249 3 -0.398 28.379947911345987 10.52242626656118 20.666697933051086 -1 0 0
746 249 2 0.129 27.48851943261664 10.367810411431497 21.387876277604516 -1 0 0
952 318 1 0.269 26.83877179240434 13.259456317681968 19.16473615036101 -1 0 0
953 318 2 0.129 25.303616075930563 13.33929840908107 19.257051732033123 -1 0 0
954 318 3 -0.398 24.150255579852537 13.399283668658187 19.326408308653015 -1 0 0
504 168 3 -0.398 28.63543286303341 13.100899667921187 16.067896326015536 -1 0 0
503 168 2 0.129 28.566261599024337 13.696870594502393 15.078612246033424 -1 0 0
829 277 1 0.269 23.50988710929447 13.960956019776088 15.924384006241189 0 0 0
548 183 2 0.129 2.5556679092141987 3.5915380135493877 22.513365552450566 1 0 0
787 263 1 0.269 4.089803020425437 1.4736601223346297 29.33939639460432 0 0 -1
549 183 3 -0.398 2.9042304529401854 2.640095411368626 23.071854699942936 1 0 0
550 184 1 0.269 5.734645171384072 3.3289371057794876 25.941001991421885 0 1 0
551 184 2 0.129 5.0440360836074145 4.301556087632305 24.9670043507579 0 1 0
336 112 3 -0.398 1.9834552877265552 4.4214678133934235 27.31437783004257 0 2 0
335 112 2 0.129 2.009297518438942 3.406638984914931 26.759306998525798 0 2 0
491 164 2 0.129 4.653951597974207 5.974569249002177 28.171114856655006 1 1 0
492 164 3 -0.398 5.212993237430693 4.973526400956056 28.32614602039222 1 1 0
334 112 1 0.269 2.0436942645902723 2.055872869221872 26.020491890024644 0 2 0
552 184 3 -0.398 4.525182372855731 5.032283465556785 24.23524118825905 0 1 0
788 263 2 0.129 2.6895539799519317 1.7822656952005698 29.90123731964327 0 0 -1
490 164 1 0.269 3.909851230849761 7.3069858315354725 27.964763955915757 1 1 0
891 297 3 -0.398 10.564193499952081 4.206409519570634 29.55881514450831 0 0 0
1 1 1 0.269 13.446063943659157 1.8192409407253325 23.181758998964344 0 1 -1
710 237 2 0.129 10.938598233784557 5.261331971644468 23.068726411543025 0 0 0
1007 336 5 -0.35 10.099063291872966 6.934707199797547 27.539637121279252 0 1 -1
685 229 1 0.269 10.562847406010915 2.4015259584026896 27.001747297556804 1 1 0
687 229 3 -0.398 8.534864072641149 2.4418122022748934 25.224257601910274 1 1 0
686 229 2 0.129 9.404859147431218 2.4245295978402845 25.98679211353913 1 1 0
3 1 3 -0.398 13.395887593835791 3.244372089353865 25.47092752555393 0 1 -1
892 298 1 0.269 13.202716073384794 5.386070328415133 27.678948342894145 0 1 -1
2 1 2 0.129 13.417413006051454 2.6329976959674313 24.48888526182974 0 1 -1
611 204 2 0.129 13.878715531343712 0.37965644812470395 28.45737931580196 0 1 0
711 237 3 -0.398 10.29400534733316 5.030475849382009 24.00138629679068 0 0 0
893 298 2 0.129 13.010682620969554 6.434568419369019 28.790422547011552 0 1 -1
843 281 3 -0.398 7.783721792534238 1.7746281326984472 29.772465640525244 0 0 0
1006 336 4 0.7 9.007253110400557 7.229971510896634 27.797259935145 0 1 -1
612 204 3 -0.398 14.797194265797197 0.5708614412735298 27.7802630296644 0 1 0
890 297 2 0.129 9.56442240997234 4.616316928065199 29.972436570576413 0 0 0
581 194 2 0.129 10.225763883944296 0.3711098477377839 22.685836901112793 0 1 0
894 298 3 -0.398 12.866408137564077 7.222303673416835 29.625471673091965 0 1 -1
610 204 1 0.269 12.65619413889913 0.12515714868720165 29.35864040538868 0 1 0
574 192 1 0.269 17.78625396701429 0.4618384903150956 26.34870748822476 0 0 0
1046 349 5 -0.35 21.069278992269478 0.05861772269901122 25.62353595897523 0 0 -1
963 321 5 -0.35 15.023945656466346 2.8208890404394813 29.82062772196298 0 1 -1
456 152 3 -0.398 16.252340832701442 6.134954438931741 23.116904134294977 -1 0 0
972 324 5 -0.35 20.81980063384811 6.377290725351441 23.383057233180743 0 0 -1
575 192 2 0.129 16.9624389545897 0.17297725488793578 25.080051501768335 0 0 0
674 225 2 0.129 18.632912617786605 2.069302904908431 22.606470844101914 0 1 0
454 152 1 0.269 17.72195431816839 4.8704603105842095 24.991764076452412 -1 0 0
970 324 4 0.7 21.9767884362318 6.310200252572303 23.432837687144566 0 0 -1
675 225 3 -0.398 19.229985434113505 2.311804102624204 23.567379903851773 0 1 0
455 152 2 0.129 16.882797934179106 5.592492552948017 23.921210012335816 -1 0 0
175 59 1 0.269 21.43102881162355 3.259504790819022 25.710455083362167 0 0 0
176 59 2 0.129 20.45186326975661 2.824314824860975 26.81654935382446 0 0 0
1016 339 5 -0.35 17.04699424780726 6.770167936787317 28.58287496087145 0 1 0
961 321 4 0.7 15.573185838919908 3.1947602711807783 28.869756792339995 0 1 -1
962 321 5 -0.35 16.122426021373467 3.568631501922071 27.918885862717005 0 1 -1
1015 339 4 0.7 17.626477246448182 6.7656232811102415 29.58775246603872 0 1 0
177 59 3 -0.398 19.716217469795545 2.497357168618471 27.64755654273671 0 0 0
147 49 3 -0.398 21.287256184391214 6.448599933825625 26.261629275896965 0 0 0
146 49 2 0.129 21.26451534048979 6.961985063894075 27.2982427825821 0 0 0
534 178 3 -0.398 26.30846021938707 3.2088632710325644 22.55479812808256 0 1 0
613 205 1 0.269 29.651802401121877 1.3932926812048119 22.700462853411597 0 0 0
583 195 1 0.269 29.472339883581313 0.041395561861314434 28.659892037429444 -1 1 -1
761 254 2 0.129 24.696240541844126 0.7888866085413957 25.446717436778442 0 1 0
724 242 1 0.269 28.729809392694563 4.675535023991221 26.062235547462503 0 1 0
971 324 5 -0.35 23.13377623861549 6.243109779793165 23.48261814110839 0 0 -1
725 242 2 0.129 28.70813690346195 5.8228774813116075 25.03523233965744 0 1 0
339 113 3 -0.398 23.182538374696527 3.685405016419547 29.239373557813106 -1 0 -1
451 151 1 0.269 25.46018414398426 7.398956150539689 25.33714709237682 0 1 0
615 205 3 -0.398 28.273976437538344 1.6160015546552406 25.00823350314296 0 0 0
614 205 2 0.129 28.865057134559535 1.52046052143976 24.018211018256345 0 0 0
338 113 2 0.129 24.156641851203993 3.845670908509423 28.635977948873848 -1 0 -1
762 254 3 -0.398 24.040281048275638 1.7419519231662433 25.452431354430992 0 1 0
337 113 1 0.269 25.453201361853523 4.058989381991192 27.83284118330215 -1 0 -1
453 151 3 -0.398 26.583793499473988 7.483152198562423 27.78749850426711 0 1 0
452 151 2 0.129 26.10177050195763 7.44703249979998 26.736309559677913 0 1 0
726 242 3 -0.398 28.691854390447574 6.684874379441271 24.263646163403905 0 1 0
23 8 2 0.129 6.880905411709178 11.81595990305757 29.417768863417727 0 0 -1
472 158 1 0.269 4.448847644139757 14.563644478826038 29.872362409724293 0 1 -1
56 19 2 0.129 0.32674779794773096 13.305203352496344 22.796728522060274 1 0 -1
264 88 3 -0.398 3.0000342569978313 8.673888901743235 24.96406446042261 0 0 -1
263 88 2 0.129 3.8902146305383725 8.53245251906664 24.238651714312443 0 0 -1
262 88 1 0.269 5.07507009748084 8.344196659669963 23.27310665898863 0 0 -1
473 158 2 0.129 4.215012700433711 14.641812120650554 28.35222720558237 0 1 -1
57 19 3 -0.398 0.2614566767887042 13.100757623203604 23.933648929684196 1 0 -1
474 158 3 -0.398 4.039332810909105 14.700539368436896 27.210151600912113 0 1 -1
212 71 2 0.129 2.499576896964763 11.208112673414439 27.829775762832664 1 0 -1
213 71 3 -0.398 2.9216224173836505 10.992732692238397 28.88530313926652 1 0 -1
211 71 1 0.269 1.93782227168811 11.494789571436138 26.4248387190054 1 0 -1
557 186 2 0.129 6.695182971626993 12.051515264972574 24.456477039783096 -1 0 0
558 186 3 -0.398 7.197575152686033 11.330509654847784 23.703880197788557 -1 0 0
556 186 1 0.269 6.0264846493876485 13.011194296599351 25.458204902074876 -1 0 0
24 8 3 -0.398 7.084229902123628 12.838442495124827 28.91593472695719 0 0 -1
357 119 3 -0.398 7.481764320985965 8.241327951157889 25.380414349357288 0 0 -1
421 141 1 0.269 14.826920950248308 8.192107941237067 25.81507864008107 0 1 -1
1008 336 5 -0.35 7.915442928928148 7.525235821995721 28.05488274901075 0 1 -1
599 200 2 0.129 14.355659362574919 12.695223304558766 23.975823044224143 0 1 0
422 141 2 0.129 14.098901490581323 8.853065894853273 24.62986884856837 0 1 -1
356 119 2 0.129 8.34867156117386 8.419001164883074 24.635060026880122 0 0 -1
423 141 3 -0.398 13.551941416013337 9.349642747018176 23.73942227143838 0 1 -1
598 200 1 0.269 13.32369768337098 12.627321349186914 25.11689465333173 0 1 0
355 119 1 0.269 9.50254982382672 8.655489279953764 23.642972164637396 0 0 -1
603 201 3 -0.398 14.223282797095463 10.761150689184113 27.965088675921503 0 0 0
601 201 1 0.269 11.704429804109134 9.890458863727838 28.37871210949609 0 0 0
602 201 2 0.129 13.142707004405366 10.387628092946471 28.1425311351895 0 0 0
163 55 1 0.269 18.092285622688266 14.668172566343598 23.05506901205467 -1 1 -1
139 47 1 0.269 20.501086441664203 13.88885037765435 27.410548103130562 -1 0 -1
600 200 3 -0.398 15.130970831950862 12.746237955445281 23.118537426212793 0 1 0
141 47 3 -0.398 21.72897366823745 11.490965034215277 27.283081093506585 -1 0 -1
708 236 3 -0.398 18.340982343492517 8.613608486513371 26.220475118406565 0 1 0
823 275 1 0.269 20.95032689970468 9.886938858869472 24.06084714163619 0 0 0
706 236 1 0.269 17.259952933537722 11.066235054200675 26.52015383685462 0 1 0
707 236 2 0.129 17.877225937368046 9.665773461972847 26.349035844118248 0 1 0
165 55 3 -0.398 19.825284636671938 12.605548667518597 23.181978702476 -1 1 -1
164 55 2 0.129 19.08183641302377 13.490404377915528 23.127535057011603 -1 1 -1
824 275 2 0.129 21.966835169305135 9.813281858704713 22.90634050061438 0 0 0
140 47 2 0.129 21.202215966663392 12.519646288334302 27.337763826222545 -1 0 -1
145 49 1 0.269 21.23424662864175 7.645315314806277 28.678004926311672 0 0 0
777 259 3 -0.398 16.84442057203487 14.529645241162081 27.079424151652233 0 0 0
65 22 2 0.129 24.816843975445543 10.740112641701288 26.88887947276614 -1 0 -1
999 333 5 -0.35 29.56441045884353 8.676191299213007 26.426162902943567 0 1 0
385 129 1 0.269 29.61206580402727 8.69963494842217 29.594982996600564 0 1 -1
269 90 2 0.129 29.03321390535488 12.397816179901922 29.024727884552824 -1 0 -1
498 166 3 -0.398 27.08960332047094 14.103806818324902 22.57878148917333 0 1 0
997 333 4 0.7 28.72556940154594 9.151592554076979 25.781229319180778 0 1 0
497 166 2 0.129 26.960058844544974 13.85394201962107 23.70102692183291 0 1 0
66 22 3 -0.398 24.720493869127836 11.098211384894988 25.79291827494126 -1 0 -1
270 90 3 -0.398 28.47547950933399 11.952455217238413 28.11410449564195 -1 0 -1
64 22 1 0.269 24.94508871505597 10.263473000803875 28.347635086119897 -1 0 -1
496 166 1 0.269 26.78763145221482 13.521364845892547 25.194767601431664 0 1 0
691 231 1 0.269 23.082316454560353 13.777137262213314 23.70362736887925 -1 0 0
70 24 1 0.269 25.727011925836965 13.744049475119697 28.590129056060626 0 0 -1
998 333 5 -0.35 27.886728344248347 9.626993808940954 25.13629573541799 0 1 0
812 271 2 0.129 1.2123284572498885 20.60921393424646 2.4411763007639182 0 0 1
811 271 1 0.269 1.878984634911315 21.552136490891517 1.4223207698097218 0 0 1
568 190 1 0.269 3.2394009181675765 17.946624681471434 5.057339550690094 0 0 0
569 190 2 0.129 2.7820570915511653 16.48813632217354 5.245084936912192 0 0 0
287 96 2 0.129 4.462221121008021 18.269414494944776 1.697367919545741 0 0 0
813 271 3 -0.398 0.711470536760096 19.900797442013772 3.2066411379807995 0 0 1
288 96 3 -0.398 3.367941658344854 18.196123385885045 1.3288168770473117 0 0 0
286 96 1 0.269 5.918738296895038 18.366967051515203 2.1879198689386374 0 0 0
137 46 2 0.129 5.2158195509869465 21.38965651991568 7.010455219326408 0 0 0
310 104 1 0.269 0.6050564771259594 16.582415526712218 1.8094592289629645 1 0 0
570 190 3 -0.398 2.438455268567278 15.392375911973765 5.386137801755668 0 0 0
138 46 3 -0.398 5.1468164601031745 20.837418474306226 5.996097928017942 0 0 0
734 245 2 0.129 5.332604695735354 21.895922484630617 0.6951605973889949 0 0 0
185 62 2 0.129 7.242340873185552 16.343775995084332 7.265597859539722 0 0 0
653 218 2 0.129 1.688611908648633 21.524928371806666 6.285345222357479 1 0 0
311 104 2 0.129 1.530532964273011 15.38123640341957 2.0782751241510313 1 0 0
654 218 3 -0.398 1.1642325229896069 20.84254152892042 7.058664985813558 1 0 0
652 218 1 0.269 2.3865758273304785 22.433204722752926 5.2560345605403995 1 0 0
522 174 3 -0.398 7.423157408797935 15.35688896923974 2.240338220917034 0 0 1
540 180 3 -0.398 7.8762419804961805 21.2703847392651 3.6462604347924645 0 0 0
526 176 1 0.269 14.168176235016123 15.386805205076126 4.6077036858836395 0 0 1
539 180 2 0.129 8.200342572883283 21.454472808750182 4.74157746136005 0 0 0
359 120 2 0.129 10.341627439925466 18.07797395942137 3.48302895130477 1 0 0
360 120 3 -0.398 11.189870658489461 18.25782322567045 2.7170089231132706 1 0 0
358 120 1 0.269 9.212591522389978 17.83858945637594 4.502623457281363 1 0 0
276 92 3 -0.398 12.08592065088804 19.73774782212746 5.98245293142768 1 0 0
895 299 1 0.269 11.124489947495125 21.671297076308512 2.502482159647423 -1 0 1
186 62 3 -0.398 8.15352877298533 15.79006394509235 6.816389025087316 0 0 0
275 92 2 0.129 12.853370141191464 20.557653246960708 5.704198777529606 1 0 0
538 180 1 0.269 8.631729705360499 21.699499279802065 6.199475664397283 0 0 0
274 92 1 0.269 13.874867302010202 21.648970752788887 5.333834562315233 1 0 0
257 86 2 0.129 14.832618319442673 20.113971297505653 2.48846629959993 -1 0 0
258 86 3 -0.398 14.316146518362848 20.94352669649953 1.8689957848129555 -1 0 0
91 31 1 0.269 12.886153973464175 18.161068362946175 0.41661984367324856 -1 1 0
256 86 1 0.269 15.520057017509165 19.009809400832737 3.312999223344051 -1 0 0
720 240 3 -0.398 16.324358554561684 17.570197394524463 6.238117704603575 0 0 0
470 157 2 0.129 19.038542061995958 19.849882626972537 5.157870899448062 1 0 0
469 157 1 0.269 20.008217325036327 18.6539214120836 5.126143045337377 1 0 0
471 157 3 -0.398 18.310026296192245 20.748406734522206 5.181707995036412 1 0 0
714 238 3 -0.398 18.100467283596775 16.072828530056103 2.3881422904324046 -1 1 0
713 238 2 0.129 18.187379349846214 16.967768687894345 1.6600094683249198 -1 1 0
234 78 3 -0.398 21.76458749424965 15.258447458817678 5.662815529636093 0 1 0
719 240 2 0.129 16.774027342475947 16.61326896088399 6.707942091014051 0 0 0
1024 342 4 0.7 21.431456942684047 15.727202384962682 2.6662848021077306 -1 0 1
712 238 1 0.269 18.303061788933636 18.15895956349581 0.6908439142665569 -1 1 0
405 135 3 -0.398 15.34838311920948 16.47535540448839 0.7593820380186707 0 -1 0
1026 342 5 -0.35 21.86382318791605 16.747812452402293 3.0083586541112544 -1 0 1
410 137 2 0.129 21.19955489513202 20.921756662592166 1.6126291945877438 -1 0 0
411 137 3 -0.398 20.647155261750232 20.679792711550775 0.6252300395166621 -1 0 0
409 137 1 0.269 21.934814562727485 21.243817582733687 2.926885632625308 -1 0 0
544 182 1 0.269 17.284032015124584 22.038593031119458 1.1250628765026969 0 0 1
718 240 1 0.269 17.372549324660877 15.339569922157683 7.333291749676224 0 0 0
404 135 2 0.129 15.340799435391776 15.3187706213746 0.7293299630723616 0 -1 0
505 169 1 0.269 24.978694753448455 15.291237202439813 4.267614061068069 -1 0 0
968 323 5 -0.35 22.767530441346445 20.013389861290438 5.969078583098952 0 0 0
604 202 1 0.269 27.03229804220074 20.230997562202575 3.348939377124158 -1 0 1
903 301 3 -0.398 27.71346746006894 17.22186944642632 4.2939661831805305 -1 -1 0
902 301 2 0.129 28.513707815176193 17.61344431080727 5.03216229509317 -1 -1 0
901 301 1 0.269 29.57885055231117 18.134641623812172 6.014722374907745 -1 -1 0
969 323 5 -0.35 24.981019199471728 20.374167223078693 6.562970166531509 0 0 0
967 323 4 0.7 23.874274820409088 20.193778542184567 6.266024374815232 0 0 0
605 202 2 0.129 25.947020682401657 21.249529055437463 2.9535071457674156 -1 0 1
573 191 3 -0.398 24.269776951062223 18.315149223735094 1.370989241450573 -1 0 0
606 202 3 -0.398 25.131653211435722 22.014750443536666 2.6564194238974457 -1 0 1
142 48 1 0.269 28.08878356510429 22.053531475850715 6.4078914032855225 0 0 0
572 191 2 0.129 25.27861952605272 17.8185482440208 1.0984582783775017 -1 0 0
571 191 1 0.269 26.621417767613103 17.15755817594819 0.7357117933882782 -1 0 0
879 293 3 -0.398 2.5743311691456565 29.225106710201246 4.792399050186626 0 -1 0
733 245 1 0.269 6.125414163764546 22.623359411588336 1.7969267543841108 0 0 0
460 154 1 0.269 4.746712927778917 27.613421346126245 1.0122678631567958 0 0 0
461 154 2 0.129 6.0417093697059485 26.839809552729555 1.3222823926761418 0 0 0
462 154 3 -0.398 7.014638514712167 26.25859601704126 1.5551959060877505 0 0 0
436 146 1 0.269 1.9559857916488288 25.75042699288954 1.9211549576627336 1 0 0
239 80 2 0.129 7.186465935557539 25.182721834542416 5.944325487637227 0 0 0
877 293 1 0.269 4.309614594076319 27.45750715987375 5.859259989970804 0 -1 0
437 146 2 0.129 2.8752270498781285 24.675975356758244 2.5311952766442603 1 0 0
438 146 3 -0.398 3.5658518133659824 23.868741237924535 2.9895177760349307 1 0 0
240 80 3 -0.398 6.725560424786555 24.824401457689785 6.94323570265835 0 0 0
878 293 2 0.129 3.31875939407883 28.466815023242063 5.250077250902344 0 -1 0
965 322 5 -0.35 7.498878844155389 28.95665712592736 6.037472146349882 0 0 0
153 51 3 -0.398 1.8801171189021528 25.915888856092288 7.411549612941075 0 -1 0
152 51 2 0.129 0.8377939407973429 25.96010830756239 6.911293645963146 0 -1 0
896 299 2 0.129 11.34076341911214 22.709169446708053 1.385501081813772 -1 0 1
238 80 1 0.269 7.799944316359028 25.659656476161302 4.614747500487248 0 0 0
964 322 4 0.7 8.094559948253563 29.576626900212325 5.258754289104477 0 0 0
945 315 3 -0.398 11.373617642664136 23.612436148440114 4.922280491912204 0 0 0
944 315 2 0.129 11.354643306264562 24.720798088443246 5.253675700857047 0 0 0
943 315 1 0.269 11.329387923329952 26.19605944333074 5.6947721760299626 0 0 0
465 155 3 -0.398 14.874482549080684 24.65754719568601 4.0846722791961705 1 0 0
464 155 2 0.129 14.606225609138795 24.879482412972976 2.9812992808398695 1 0 0
463 155 1 0.269 14.249167970841041 25.17488451722702 1.5126783495791032 1 0 0
266 89 2 0.129 11.576364073009513 29.581668367284042 3.5479541316067396 0 -1 0
267 89 3 -0.398 11.079569547848102 28.73273288964572 2.9387310570455583 0 -1 0
366 122 3 -0.398 11.885204157149422 29.244140803960946 7.377125538831401 0 -1 0
841 281 1 0.269 8.519094301824257 29.69701409550629 1.3269932810122174 0 -1 1
897 299 3 -0.398 11.503249397463366 23.48892161070303 0.5463146486621248 -1 0 1
655 219 1 0.269 10.363254572957771 26.93989505393317 0.49047764730160526 0 0 1
545 182 2 0.129 18.282762897529196 22.819890936171273 0.25115772827900645 0 0 1
805 269 1 0.269 17.74857476266585 24.044519832780324 5.253449770972716 0 0 1
134 45 2 0.129 20.266643746431136 29.740225810139332 1.2186748951044966 0 -1 1
806 269 2 0.129 19.2197410588896 24.25088121823919 5.659263407320497 0 0 1
1038 346 5 -0.35 15.155801025006783 28.17157683783631 4.630761330520302 0 0 1
494 165 2 0.129 18.4128440082088 26.201371033240953 2.7043546216054346 -1 0 0
495 165 3 -0.398 17.442255290816945 26.50427349012917 3.25649286813657 -1 0 0
493 165 1 0.269 19.70472527422735 25.79819922372682 1.9694428673634765 -1 0 0
1036 346 4 0.7 16.122884478305686 28.623823754777803 5.084437779625931 0 0 1
807 269 3 -0.398 20.325026386636928 24.405920259132643 5.964150665277889 0 0 1
325 109 1 0.269 16.26056731529829 29.165095703317593 1.548270988341133 0 0 0
920 307 2 0.129 22.101740101839376 28.013613431631885 5.036196616144443 0 0 1
1037 346 5 -0.35 17.089967931604598 29.076070671719293 5.5381142287315654 0 0 1
135 45 3 -0.398 20.673288598835317 28.7793045481857 1.7185941809276086 0 -1 1
326 109 2 0.129 17.040972179505484 28.634744757804366 0.3311858957876786 0 0 0
919 307 1 0.269 20.883067974586506 28.089823690669178 5.974615628460376 0 0 1
426 142 3 -0.398 23.656669548470322 22.681348427987146 5.375752242837622 0 0 0
150 50 3 -0.398 29.419559230316775 22.936290988792237 3.6228173455761152 -1 0 -1
84 28 3 -0.398 29.66186533461363 27.218522967933303 3.4807383382272175 -1 0 0
921 307 3 -0.398 23.017326888353388 27.95635676299153 4.331163630917472 0 0 1
83 28 2 0.129 29.743854521695074 28.259789886525468 2.983053721781106 -1 0 0
513 171 3 -0.398 26.446113383157254 27.439456531675678 0.7365677282777877 0 0 1
148 50 1 0.269 28.113919277094684 24.68739803562343 2.0408131031405645 -1 0 -1
425 142 2 0.129 23.7906657314487 23.361322581312645 6.302212805277239 0 0 0
428 143 2 0.129 26.368435911670424 26.28683332572818 4.9695184217689885 0 0 0
427 143 1 0.269 26.45330614805157 27.649988906818216 4.258038341429121 0 0 0
429 143 3 -0.398 26.30467301329836 25.262696307987152 5.504052482128226 0 0 0
640 214 1 0.269 23.61589969547831 25.660237507830615 2.3205161732257142 -1 0 1
149 50 2 0.129 28.859445983791762 23.687507471248182 2.9441451511015386 -1 0 -1
641 214 2 0.129 22.893627071353908 25.576382685476588 0.9629850961571946 -1 0 1
82 28 1 0.269 29.852984468199324 29.64574585422809 2.320621302310921 -1 0 0
151 51 1 0.269 29.450432061556715 26.01896565869805 6.245438685594939 -1 -1 0
744 248 3 -0.398 28.435136168704627 29.59880487868341 6.805182149125032 -1 0 1
898 300 1 0.269 24.818114604107283 29.827554649031402 6.490146818378257 0 0 0
899 300 2 0.129 25.07299614484426 28.612325967405994 7.401110402473138 0 0 0
121 41 1 0.269 5.262668555508569 15.801077564157485 12.143379914695137 0 0 -1
136 46 1 0.269 5.3076646330621555 22.12470110957736 8.360593705596969 0 0 0
184 62 1 0.269 6.029523789614537 17.08078252662077 7.863507630548112 0 0 0
122 41 2 0.129 4.369506740408131 16.017709005188394 10.907688694849252 0 0 -1
873 291 3 -0.398 4.207438395349594 19.589595328900185 10.421279238358537 0 0 0
872 291 2 0.129 3.2609657361628117 19.20846778071893 9.87577002906039 0 0 0
871 291 1 0.269 2.001183631454391 18.7011761435546 9.149681712449203 0 0 0
623 208 2 0.129 1.3355540336474503 18.1605813445639 13.626735955580072 1 0 0
372 124 3 -0.398 7.4758859401712545 21.666476727515843 14.947706435488707 1 0 -1
624 208 3 -0.398 0.5686091069701951 17.88786698073981 12.80450037181481 1 0 0
123 41 3 -0.398 3.6984754286735826 16.18046392549538 9.979315486172833 0 0 -1
586 196 1 0.269 4.353108161120376 21.494005935440452 13.080084842188667 0 0 0
955 319 1 0.269 0.41218057296529165 15.270807464114087 10.83797899467791 1 0 0
622 208 1 0.269 2.3563796058885575 18.5235719411837 14.72115496940765 1 0 0
531 177 3 -0.398 5.852900792450653 17.889381368450472 14.541920856376802 0 0 0
643 215 1 0.269 8.081893805203263 18.535726687208026 11.881104083041416 0 0 0
30 10 3 -0.398 10.067279808642091 15.92861987850119 14.805565545380533 0 0 0
29 10 2 0.129 9.669036432808971 15.083270232095396 14.123337439152477 0 0 0
644 215 2 0.129 8.694386085339179 17.50613949824366 10.91342467998831 0 0 0
7 3 1 0.269 10.69096045598559 19.541158094899338 8.913992816131033 0 0 0
645 215 3 -0.398 9.154550739960772 16.73261198030095 10.186408401201009 0 0 0
907 303 1 0.269 11.68798923163996 15.913729199764557 8.22898025065499 0 0 1
488 163 2 0.129 12.373515178138037 19.156158613055457 12.179700198839527 0 0 0
487 163 1 0.269 12.947899009451458 17.816823165283186 11.681841009241735 0 0 0
489 163 3 -0.398 11.941981351625287 20.162399595570072 12.553741161413972 0 0 0
273 91 3 -0.398 14.98996011225816 18.659057247533177 14.346994663401906 0 0 -1
8 3 2 0.129 9.472123338846666 20.423373952569612 9.242217224668948 0 0 0
699 233 3 -0.398 13.632036621147527 19.951238355630988 8.939183745260427 0 0 0
9 3 3 -0.398 8.556412595645538 21.086181580702416 9.48881179653802 0 0 0
698 233 2 0.129 14.704966043050586 20.197713943010015 8.583204475581505 0 0 0
272 91 2 0.129 15.036102883743503 19.80136187127331 14.16906211657187 0 0 -1
382 128 1 0.269 20.50282268422017 21.19708736684002 7.962147831910485 0 0 -1
697 233 1 0.269 16.133065705739178 20.525779979798003 8.10938591438398 0 0 0
915 305 3 -0.398 15.56493650306949 16.548116461323335 10.145606342730181 0 0 0
914 305 2 0.129 16.231543190262162 17.388706675239316 10.578841402321075 0 0 0
913 305 1 0.269 17.11881570389804 18.507556225308985 11.155489623384138 0 0 0
974 325 5 -0.35 22.205313979266457 17.539476468393897 7.817525707335771 0 0 0
973 325 4 0.7 21.1254087213428 17.36043839834654 8.201387666095842 0 0 0
289 97 1 0.269 20.72213772384246 22.047733602832196 12.749198664125489 1 1 -1
290 97 2 0.129 19.27340221657468 22.44450315305579 12.409582183373017 1 1 -1
383 128 2 0.129 21.413813024666634 20.393335892441826 8.908551639498423 0 0 -1
384 128 3 -0.398 22.098238884339718 19.789478453559546 9.619583591043385 0 0 -1
1048 350 4 0.7 22.06733666562158 15.270505210585545 10.909990178331322 0 0 0
975 325 5 -0.35 20.04550346341915 17.181400328299183 8.585249624855916 0 0 0
271 91 1 0.269 15.097520228676455 21.321801906329327 13.932228821741921 0 0 -1
651 217 3 -0.398 18.357008400108324 19.225199456696767 14.573259577004864 -1 0 0
664 222 1 0.269 21.632437679384772 17.522622674522573 14.612732000432063 0 0 0
846 282 3 -0.398 24.56688511012383 15.211278840991774 9.011248322031525 1 0 0
1050 350 5 -0.35 22.790735122437237 15.841472049245025 11.61446980318092 0 0 0
957 319 3 -0.398 29.144192723493823 16.31581642125194 8.69929433042803 0 0 0
844 282 1 0.269 26.04459856802015 17.271968526956062 8.092700579934927 1 0 0
97 33 1 0.269 24.999909696798895 21.33960893109227 10.425097533611593 -1 0 0
956 319 2 0.129 29.688153398999383 15.867512615761218 9.616779742566369 0 0 0
74 25 2 0.129 25.165645067306986 17.286282298071633 14.15011824108114 0 0 0
73 25 1 0.269 25.54418323926728 17.81072773407896 12.75252536866805 0 0 0
694 232 1 0.269 29.280549871357987 21.036935338647446 11.331325028718156 -1 0 0
695 232 2 0.129 28.22554050085483 19.992143290703595 10.922711758370115 -1 0 0
696 232 3 -0.398 27.432913330937843 19.207192381956165 10.615721139024215 -1 0 0
216 72 3 -0.398 26.16232601157561 20.944885267417874 14.822348606293994 0 0 0
845 282 2 0.129 25.200817060730444 16.095304783394695 8.61719576822887 1 0 0
670 224 1 0.269 5.624446922428424 29.953608152901563 9.012727421977718 0 0 0
587 196 2 0.129 3.2109966496785196 22.51127111985516 12.900215889867892 0 0 0
667 223 1 0.269 6.236476641918395 29.562854468849668 14.321170103286406 1 -1 0
949 317 1 0.269 1.2278873724666954 28.285038779684815 14.165982152676921 1 0 0
588 196 3 -0.398 2.3529297543939554 23.275541131782308 12.765080579585335 0 0 0
977 326 5 -0.35 4.2427046671276525 27.10400950623646 9.03447797127596 1 0 0
976 326 4 0.7 4.326391589767508 25.987266276337273 9.336936327837677 1 0 0
978 326 5 -0.35 4.410078512407362 24.870523046438084 9.639394684399397 1 0 0
314 105 2 0.129 1.0619396384898447 25.772103693001156 10.81265676932143 1 0 0
315 105 3 -0.398 1.393203015951002 26.80514459076792 11.214825985317397 1 0 0
446 149 2 0.129 6.302580668839774 25.11272608783708 12.398771295580692 0 0 -1
671 224 2 0.129 6.300136631086627 29.446168356958697 10.300185487743581 0 0 0
445 149 1 0.269 5.304853073564987 26.010381838812833 13.15398901145282 0 0 -1
672 224 3 -0.398 6.807781431682431 29.06492949727954 11.26745106053001 0 0 0
447 149 3 -0.398 7.052172115419599 24.43831848791568 11.83137720644819 0 0 -1
313 105 1 0.269 0.6210186347818234 24.397096793640042 10.277358072144434 1 0 0
950 317 2 0.129 0.30442886406440994 27.15187769435032 14.650513202189359 1 0 0
621 207 3 -0.398 14.32251529953792 29.697551391753574 13.966417444848956 0 0 0
865 289 1 0.269 9.007815686299264 25.275304163304977 9.447936911575066 0 0 0
365 122 2 0.129 11.02638520277023 29.88338880716196 7.815806509472377 0 -1 0
202 68 1 0.269 9.631144485252243 28.36096101183356 12.490099725311321 1 0 -1
543 181 3 -0.398 12.6145848836536 26.75408815366441 12.193332232032672 -1 0 1
203 68 2 0.129 10.450108719305707 29.606269172414628 12.102665642492447 1 0 -1
104 35 2 0.129 11.015887695932026 23.098210541742596 13.90292491639426 1 0 -1
867 289 3 -0.398 9.232000871869795 27.632383832245264 8.156532468018721 0 0 0
348 116 3 -0.398 11.348434184263056 23.572014788008406 8.250474532294067 0 0 0
866 289 2 0.129 9.135826507870867 26.62120801579591 8.710538749514713 0 0 0
103 35 1 0.269 9.766880697540255 23.67560286793844 13.211405126641983 1 0 -1
347 116 2 0.129 11.995633684583833 23.2496532178118 9.153726891740112 0 0 0
542 181 2 0.129 13.012347280329209 27.605876478467604 11.518876358368558 -1 0 1
346 116 1 0.269 12.857074678960664 22.820580773470596 10.355981544762505 0 0 0
541 181 1 0.269 13.541780375299338 28.73963103352112 10.62115635366437 -1 0 1
105 35 3 -0.398 11.954265031736755 22.66441643693182 14.422462836357496 1 0 -1
940 314 1 0.269 14.272741902014024 25.283930781408557 7.960279775983335 0 0 0
941 314 2 0.129 14.97642817579867 26.651255912011774 7.87752945690594 0 0 0
912 304 3 -0.398 15.370352101210544 24.30901445512283 11.005956179859785 0 -1 0
101 34 2 0.129 20.440679713984967 27.21860630315031 14.11689911511324 -1 -1 0
910 304 1 0.269 15.11843428927076 25.431000435254635 13.445524558982791 0 -1 0
911 304 2 0.129 15.262280574175202 24.790341032435585 12.05251925536788 0 -1 0
100 34 1 0.269 20.788687816317406 25.726474521128267 13.96187296960194 -1 -1 0
798 266 3 -0.398 17.303141404059442 23.22235167592516 8.373398766573153 0 0 1
797 266 2 0.129 17.94549662281901 23.96938504971573 8.980004001776077 0 0 1
291 97 3 -0.398 18.184969111439077 22.742595600853647 12.154428762444049 1 1 -1
619 207 1 0.269 16.96285375785402 29.14782189059591 13.951608626701676 0 0 0
942 314 3 -0.398 15.505106759414797 27.678525506887052 7.815359249651038 0 0 0
796 266 1 0.269 18.80048974026908 24.963707777146556 9.787412871449812 0 0 1
555 185 3 -0.398 20.27216364016086 27.536032563076553 10.327345092645938 0 0 0
554 185 2 0.129 21.421128399755975 27.514614690468758 10.461770744742838 0 0 0
620 207 2 0.129 15.455207771273821 29.461720085546894 13.960064533244804 0 0 0
102 34 3 -0.398 20.17922167866118 28.339642973149985 14.233370056903222 -1 -1 0
616 206 1 0.269 29.142033092608408 22.99870210378252 14.823933902903192 0 0 0
876 292 3 -0.398 24.677756926728915 26.787344037103455 14.195998639572649 0 0 0
925 309 1 0.269 25.153296182920453 23.87042931075024 14.28904435065263 0 0 0
553 185 1 0.269 22.950433265595635 27.48610689114637 10.640695121777611 0 0 0
424 142 1 0.269 23.969018472837384 24.26638757363872 7.5353582384293665 0 0 0
190 64 1 0.269 26.385021877640117 25.766093600901655 10.260336667577972 0 0 0
982 328 4 0.7 26.653509621983716 29.821919386516583 10.136725995030808 0 0 0
927 309 3 -0.398 22.773269904347764 22.786625839301895 14.9483272554695 0 0 0
874 292 1 0.269 26.681943174209767 28.57085916727779 13.92009962571738 0 0 0
926 309 2 0.129 23.79428970572285 23.251572304435648 14.665498067159112 0 0 0
144 48 3 -0.398 27.879567580372992 22.87144498305301 8.969347076622348 0 0 0
143 48 2 0.129 27.969320229365987 22.520564030945835 7.8704949394140735 0 0 0
875 292 2 0.129 25.537543166378654 27.55246343110112 14.077639292509044 0 0 0
99 33 3 -0.398 23.47820917444622 23.510925694013117 10.918676337176333 -1 0 0
983 328 5 -0.35 27.40590518839255 28.945891243985162 10.246615053365208 0 0 0
192 64 3 -0.398 27.248447330624856 24.0352410332003 12.139819276175444 0 0 0
191 64 2 0.129 26.878041973152357 24.77776844173959 11.33353029651387 0 0 0
900 300 3 -0.398 25.264488315384966 27.69932623711989 8.085516160134029 0 0 0
98 33 2 0.129 24.131011363679455 22.57944126883721 10.70693340958108 -1 0 0
245 82 2 0.129 3.2465452951785054 16.96269434758237 18.81233454140988 0 0 -1
244 82 1 0.269 2.1912269346265867 15.861496974051885 19.0250961507567 0 0 -1
246 82 3 -0.398 4.039404608917832 17.790022504189366 18.65248702062139 0 0 -1
884 295 2 0.129 0.06995789939574022 20.386111134828923 19.944044178679743 0 0 0
883 295 1 0.269 0.730215688200323 20.381574227417318 18.55277171478385 0 0 0
887 296 2 0.129 5.81588813469585 21.02057693776762 21.04076247146924 0 0 0
886 296 1 0.269 4.909099822595143 19.796177962630548 21.26477610212904 0 0 0
888 296 3 -0.398 6.497157015929955 21.940466297659572 20.87246132168132 0 0 0
21 7 3 -0.398 0.5813634161875729 16.221281526870836 16.358154812153586 0 0 0
529 177 1 0.269 6.402087714425344 16.391363768388196 16.71635089540738 0 0 0
618 206 3 -0.398 0.11293927194461051 20.642176737177927 15.70594205903085 1 0 0
928 310 1 0.269 7.296622497401815 16.722195312391722 20.54562059516667 0 0 0
530 177 2 0.129 6.08849933480316 17.24673903872409 15.474740861997262 0 0 0
210 70 3 -0.398 2.4312879465995145 17.299072234930534 22.12049334201314 1 0 -1
929 310 2 0.129 7.382279328536894 15.24350274670916 20.124038807759927 0 0 0
87 29 3 -0.398 7.69226774207806 19.058512192800965 18.22729996727712 0 0 -1
86 29 2 0.129 8.59828943380863 19.657071859075717 18.62667450329845 0 0 -1
172 58 1 0.269 12.68199065511631 15.760487554141115 16.679465230621485 0 1 0
715 239 1 0.269 13.324805643302371 21.206934162325602 17.096820912043224 0 0 0
85 29 1 0.269 9.804230147088733 20.453771847030016 19.158253401719236 0 0 -1
594 198 3 -0.398 11.894043623591473 21.29343242016862 21.638988822322585 0 0 0
173 58 2 0.129 12.247213903817837 17.041540518285952 17.41531336684541 0 1 0
174 58 3 -0.398 11.920566695212425 18.003993946542824 17.968155115943517 0 1 0
250 84 1 0.269 13.872028062481528 17.834459322135963 21.8891355457498 0 0 0
802 268 1 0.269 11.176723006167325 15.050933544037674 21.351233213875187 0 1 0
716 239 2 0.129 14.30459088410175 22.306111006007264 17.547854334557794 0 0 0
370 124 1 0.269 9.592960560949585 20.01322104736211 15.189676900827436 1 0 -1
371 124 2 0.129 8.384100747824398 20.95723800970425 15.05151059878011 1 0 -1
112 38 1 0.269 16.2066568953113 19.732158406112077 20.067600818153856 0 0 -1
113 38 2 0.129 17.307871562924174 19.97050275200137 19.01778262979125 0 0 -1
870 290 3 -0.398 19.876258738093732 19.291373379437957 20.568556629141177 0 0 0
563 188 2 0.129 16.284193509829706 15.478061737222486 19.93328161204496 1 1 0
869 290 2 0.129 19.884009868226507 18.142206192573482 20.434378774723253 0 0 0
649 217 1 0.269 18.003924613798233 17.15367744191169 16.263803093780066 -1 0 0
564 188 3 -0.398 16.727378008576267 16.51951631807581 19.69326316256598 1 1 0
868 290 1 0.269 19.894326843511266 16.612631890264673 20.255784223466893 0 0 0
114 38 3 -0.398 18.135212712552807 20.14957054952988 18.229055588274665 0 0 -1
13 5 1 0.269 21.280540652946495 20.151658392827795 17.79050438689118 0 -1 -1
666 222 3 -0.398 21.557347351227733 16.80738150445109 17.212078170386004 0 0 0
665 222 2 0.129 21.589560740058918 17.114216518827327 16.096971192767644 0 0 0
14 5 2 0.129 22.116968619302764 20.853166585910415 18.87672467400361 0 -1 -1
856 286 1 0.269 18.04766313756827 22.475926676365532 15.616478874668914 -1 0 0
650 217 2 0.129 18.20553715770537 18.3365264974434 15.298494596993335 -1 0 0
885 295 3 -0.398 29.573907080144505 20.389519707475174 20.98930537395737 -1 0 0
20 7 2 0.129 29.569570243647572 16.757765079235867 16.522802842942603 -1 0 0
15 5 3 -0.398 22.74537586415614 21.380208780323787 19.69280056503548 0 -1 -1
577 193 1 0.269 24.640280598789815 17.204573964097037 19.845234409455994 0 0 0
578 193 2 0.129 24.749874398853663 17.811823636422343 21.256204655226476 0 0 0
413 138 2 0.129 28.07914604082084 16.949155618096682 21.21510452188453 -1 0 -1
414 138 3 -0.398 27.908132286185538 16.82027822366251 20.078093566383096 -1 0 -1
214 72 1 0.269 24.8181616875095 19.937846265549233 16.932539052348705 0 0 0
205 69 1 0.269 26.328393102907174 22.392366927130325 20.11008994081616 0 0 0
617 206 2 0.129 29.696425200942763 21.653114760597102 15.327564811481835 0 0 0
19 7 1 0.269 28.222844672591734 17.47183998903893 16.74195406802047 -1 0 0
215 72 2 0.129 25.585685995652554 20.512870389715978 15.7276101361736 0 0 0
75 25 3 -0.398 24.881249830321234 16.892267123097295 15.200127951069422 0 0 0
579 193 3 -0.398 24.832212078512025 18.2680495266044 22.31626476844495 0 0 0
31 11 1 0.269 6.874716998553987 23.031250759894938 17.51348944039572 1 0 0
537 179 3 -0.398 3.4122759347118112 22.867837070345555 19.85398841996141 0 0 0
32 11 2 0.129 6.35535601042101 24.20753687625672 16.666013696518238 1 0 0
33 11 3 -0.398 5.965160774531494 25.091279107835017 16.029306270760937 1 0 0
536 179 2 0.129 2.4782280801506866 23.1826750005381 20.45986025715182 0 0 0
535 179 1 0.269 1.2349837447797865 23.601733265444345 21.26629295315289 0 0 0
721 241 1 0.269 5.182237647629675 27.71440951344618 17.98422747191552 1 0 0
633 211 3 -0.398 2.3553629607988693 25.938158801483308 18.166804008901284 1 0 1
632 211 2 0.129 2.3073451674504666 25.30858564719809 17.197277869529724 1 0 1
631 211 1 0.269 2.243432114938337 24.47060582213393 15.906810925163091 1 0 1
722 241 2 0.129 4.296473801522648 28.435045464157493 16.950928756407112 1 0 0
723 241 3 -0.398 3.631000574285094 28.97645831803605 16.174612773392035 1 0 0
419 140 2 0.129 4.388185425981249 26.110238130141816 21.323463697313038 0 0 -1
418 140 1 0.269 5.5841274128254526 25.140697853700573 21.28720881542242 0 0 -1
727 243 1 0.269 0.8335312828490613 28.594093265379698 18.583856260157567 1 0 0
420 140 3 -0.398 3.48967576443661 26.838652480688907 21.350701942993194 0 0 -1
728 243 2 0.129 0.048488382006402944 29.573727893568652 17.691878884272995 1 0 0
108 36 3 -0.398 7.924705227913656 29.30884075894378 17.242317094888907 1 0 -1
1012 338 4 0.7 8.9468181021453 26.908777194444383 16.09608139046733 0 0 -1
1013 338 5 -0.35 9.663959705722714 26.698782564736167 16.98333004553109 0 0 -1
78 26 3 -0.398 7.806787792167188 27.38777259879684 21.177350563235255 0 0 -1
1018 340 4 0.7 8.837476678609196 22.987129949838227 21.8979946384059 0 1 0
1019 340 5 -0.35 8.87188304227839 23.827173847982216 21.098780992795703 0 1 0
77 26 2 0.129 8.694870301664452 27.733078787381842 20.52105635142956 0 0 -1
76 26 1 0.269 9.876933451729958 28.192691173225324 19.647510036666574 0 0 -1
818 273 2 0.129 13.170445422823162 27.19312266877258 16.863603046193035 0 0 0
647 216 2 0.129 12.175867595994083 24.6525952676089 21.845143260099753 0 0 0
819 273 3 -0.398 13.422337653936783 27.37465485100898 17.9781636639783 0 0 0
646 216 1 0.269 12.406999510895753 24.884076508572306 20.34028629912465 0 0 0
817 273 1 0.269 12.835169678730704 26.95149815654782 15.380091074378598 0 0 0
441 147 3 -0.398 10.814644951727988 29.530185546302533 15.690035263695489 0 -1 -1
832 278 1 0.269 13.691681654326842 28.351122686798785 21.149201430297655 1 0 -1
833 278 2 0.129 14.212933879413445 27.615906730387056 22.397942242187348 1 0 -1
1014 338 5 -0.35 8.22967649856788 27.118771824152592 15.208832735403563 0 0 -1
717 239 3 -0.398 15.04070226306596 23.131921141162902 17.8867151591353 0 0 0
851 284 2 0.129 21.629861570903355 29.89607121414337 19.82594612132891 -1 0 0
628 210 1 0.269 18.59636496770062 23.01644018768054 20.168569105620623 0 -1 0
857 286 2 0.129 18.931593010668735 23.334065925378713 16.540527038318654 -1 0 0
858 286 3 -0.398 19.595688376368233 23.978784828695755 17.234763223606155 -1 0 0
499 167 1 0.269 16.64937386998825 25.83917507060711 18.256251502714914 0 0 0
500 167 2 0.129 17.112289942443606 26.03930606057283 16.80117202147678 0 0 0
501 167 3 -0.398 17.460078186489607 26.1896642134237 15.707972696936185 0 0 0
850 284 1 0.269 22.465212047479735 28.641308498530613 20.141160506771627 -1 0 0
634 212 1 0.269 18.7848996328117 29.013770923727865 17.073708326535062 0 0 0
635 212 2 0.129 17.677451657701518 29.30109265515864 18.10453576363269 0 0 0
609 203 3 -0.398 19.42787450682661 27.206340416738264 19.86242548801351 0 -1 0
608 203 2 0.129 18.872216163679553 27.661734847109468 20.769348152014178 0 -1 0
450 150 3 -0.398 15.436176643897614 24.17342515957228 21.263601025739042 -1 0 0
766 256 1 0.269 21.989595526147895 24.492710360210385 19.53711856921848 0 0 0
449 150 2 0.129 15.768190765441604 24.29497455847297 22.365254949039052 -1 0 0
629 210 2 0.129 19.197114714948924 23.64830744194071 21.43799555649324 0 -1 0
981 327 5 -0.35 22.25947827976871 28.40852625390624 16.63743519014183 0 -1 0
630 210 3 -0.398 19.6484572198621 24.123028489459546 22.391714000428063 0 -1 0
607 203 1 0.269 18.132619060441474 28.26787782271159 21.976488085083346 0 -1 0
636 212 3 -0.398 16.845427432245362 29.51695709883748 18.87899507838721 0 0 0
206 69 2 0.129 27.508655882326906 22.62785993101609 19.149297134516214 0 0 0
918 306 3 -0.398 28.668429480655625 28.316033885597204 21.337817025637225 0 0 0
226 76 1 0.269 27.33313018251353 26.587459034918716 17.386696131342163 -1 -1 -1
228 76 3 -0.398 25.30774447617185 28.135808032071083 18.266603583046386 -1 -1 -1
227 76 2 0.129 26.17662518148788 27.47157377559897 17.88912752756927 -1 -1 -1
207 69 3 -0.398 28.39538577569615 22.804785519000397 18.427454746925935 0 0 0
979 327 4 0.7 22.591553187870975 27.29712704579281 16.648300530155836 0 -1 0
980 327 5 -0.35 22.92362809597324 26.18572783767938 16.659165870169844 0 -1 0
299 100 2 0.129 25.392694330093953 29.744540688888737 21.82285221871939 0 -1 0
767 256 2 0.129 23.2823675140961 24.990871736988872 20.20955877463456 0 0 0
916 306 1 0.269 27.155557423400072 26.14019730850068 21.838578773522435 0 0 0
768 256 3 -0.398 24.25362542971693 25.365139732399722 20.714762227664696 0 0 0
917 306 2 0.129 28.019414660394343 27.382610481926214 21.552641401722944 0 0 0
951 317 3 -0.398 29.61063568599854 26.300535242576295 15.01454075042695 0 0 0
433 145 1 0.269 0.43339331471042786 15.457676400227005 26.493700316067898 0 0 -1
329 110 2 0.129 6.629314728075524 16.202499403905122 24.440127501742104 0 0 -1
67 23 1 0.269 4.218919101491144 18.63711447197988 28.1435606488277 0 0 -1
68 23 2 0.129 2.8735029961597895 18.417190830697447 27.427258271671374 0 0 -1
69 23 3 -0.398 1.862693623517985 18.251962484617067 26.889101225976653 0 0 -1
209 70 2 0.129 2.031138515676827 18.207296577197322 22.71518483938424 1 0 -1
208 70 1 0.269 1.4985282100407533 19.41616908116521 23.5067361841997 1 0 -1
321 107 3 -0.398 5.290111203997027 20.12669246800367 24.673208906864417 0 0 0
349 117 1 0.269 2.256569196477908 22.124677677509126 27.29801535958727 1 0 -1
328 110 1 0.269 5.180008620155728 16.719357346910556 24.377122166257593 0 0 -1
320 107 2 0.129 5.870444071385221 21.01206798503308 25.14008464715728 0 0 0
189 63 3 -0.398 7.046642237230481 17.297349620316368 28.194253677306296 0 1 -1
319 107 1 0.269 6.642883670156033 22.190528050914928 25.761509573735513 0 0 0
350 117 2 0.129 2.3810754497078057 22.408788605354232 25.789579357105417 1 0 -1
735 245 3 -0.398 4.73696797202771 21.349400066130567 29.867405114503704 0 0 -1
187 63 1 0.269 8.620075074443827 15.358054729629277 27.175797279744284 0 1 -1
330 110 3 -0.398 7.718176524739945 15.814184702569223 24.487463328466507 0 0 -1
251 84 2 0.129 14.818763369245977 16.902384383800477 22.66793498607621 0 0 0
593 198 2 0.129 12.386944309899233 21.307299417247545 22.685652865762105 0 0 0
987 329 5 -0.35 13.833077516529693 15.814861195638276 26.26138369534284 0 0 0
480 160 3 -0.398 11.279392183423637 16.905722402826562 23.546127097597026 -1 0 -1
188 63 2 0.129 7.721637340180366 16.465401459943745 27.75734079188574 0 1 -1
985 329 4 0.7 14.107350029839957 16.921337832878336 26.476055630360918 0 0 0
986 329 5 -0.35 14.381622543150222 18.02781447011839 26.690727565379003 0 0 0
478 160 1 0.269 9.307532793458048 18.59580191905681 24.273595842644013 -1 0 -1
93 31 3 -0.398 10.853534531789528 17.760091176164064 28.68992227287325 -1 1 -1
92 31 2 0.129 11.725518474695559 17.932108456515156 29.430667207769652 -1 1 -1
129 43 3 -0.398 10.161102999114448 20.964635843147384 26.575955040415224 0 0 0
479 160 2 0.129 10.433474009826979 17.630758368817812 23.858207682698758 -1 0 -1
592 198 1 0.269 13.04300918190784 21.32575678587463 24.078792560573568 0 0 0
406 136 1 0.269 8.490489959464611 19.575412475381416 29.838065318947645 0 1 -1
407 136 2 0.129 8.311929158274921 21.074883572491675 29.53590233443277 0 1 -1
220 74 1 0.269 14.409470046796466 21.10268101804449 27.950604020443304 0 0 -1
1020 340 5 -0.35 8.80307031494 22.14708605169424 22.6972082840161 0 1 0
128 43 2 0.129 10.471203277060303 21.97702283925861 27.04238765904645 0 0 0
408 136 3 -0.398 8.177776660238251 22.201434260385547 29.308887676586206 0 1 -1
252 84 3 -0.398 15.530044375691736 16.20211769311596 23.2530459941656 0 0 0
776 259 2 0.129 17.207155597053607 15.610969628257749 26.884976545606094 0 0 0
775 259 1 0.269 17.689966261296345 17.050243229059237 26.62616123591633 0 0 0
60 20 3 -0.398 20.37894110229833 16.250639061870036 24.7415587598978 0 0 0
278 93 2 0.129 19.368133799173677 21.91779088856044 25.042325474016877 0 0 -1
222 74 3 -0.398 16.99683407821986 20.367615034542982 28.148175194435776 0 0 -1
221 74 2 0.129 15.886867380275154 20.682954798321717 28.063418113119763 0 0 -1
736 246 1 0.269 18.0438541694951 18.833938072428847 23.309584272456757 0 0 0
738 246 3 -0.398 15.659758536173975 19.992850024701116 23.806394193911288 0 0 0
737 246 2 0.129 16.68252407112115 19.495682383329587 23.59326513231585 0 0 0
59 20 2 0.129 21.063787305228896 17.159408656692133 24.95077754934763 0 0 0
279 93 3 -0.398 19.731684785913018 20.95449354259339 24.514558571593188 0 0 -1
58 20 1 0.269 21.975337134540098 18.369006907362863 25.22925372545199 0 0 0
1023 341 5 -0.35 22.12311233027928 18.1978379447751 28.94605321469202 0 0 1
814 272 1 0.269 21.79411405387763 22.264045329673486 28.35035462477505 0 0 0
412 138 1 0.269 28.306770225901538 17.120695105934733 22.72849853352861 -1 0 -1
679 227 1 0.269 23.140217802255613 20.99786122604873 23.22862898370108 -1 0 0
1022 341 5 -0.35 23.719227558566462 19.881396854884287 28.96716184385789 0 0 1
816 272 3 -0.398 23.294044909444683 21.941759088693452 26.132213960300817 0 0 0
434 145 2 0.129 29.77544083633062 15.645632630497671 27.87332743659586 -1 0 -1
1021 341 4 0.7 22.92116994442287 19.03961739982969 28.956607529274958 0 0 1
182 61 2 0.129 29.111224857512287 19.913855183784918 27.39566025477177 0 1 -1
181 61 1 0.269 29.307965119642112 20.381786968595907 28.8495973627725 0 1 -1
183 61 3 -0.398 28.96341415408098 19.56229864156004 26.30331919376083 0 1 -1
680 227 2 0.129 24.645212862507915 21.298644374831998 23.35559104899235 -1 0 0
681 227 3 -0.398 25.77591369673643 21.524622363885396 23.45097748375988 -1 0 0
363 121 3 -0.398 25.12374171953149 16.217565365716446 26.82364279568396 0 0 -1
362 121 2 0.129 25.28534004141233 17.166870054019842 26.182272706631892 0 0 -1
361 121 1 0.269 25.500432016949482 18.430421670257722 25.328590824920408 0 0 -1
435 145 3 -0.398 29.281121993807613 15.786843902201026 28.90983950052499 -1 0 -1
1035 345 5 -0.35 26.490707011460888 22.27537143407808 27.908782266754105 0 0 0
52 18 1 0.269 28.6212906395938 22.135867817292084 23.957148151604944 -1 -1 -1
815 272 2 0.129 22.65058180232897 22.080018332599234 27.083785613543935 0 0 0
585 195 3 -0.398 0.8907835301042095 27.935270217466645 29.568771927920768 0 0 -1
154 52 1 0.269 4.276995362602302 29.43634738423719 23.001956216025373 1 0 -1
351 117 3 -0.398 2.4746168360629963 22.622240776469035 24.656293347448592 1 0 -1
399 133 3 -0.398 0.35712908826542394 28.735880761373615 25.78018348208046 1 -1 0
398 133 2 0.129 0.6549184611600452 28.14242362360375 24.832671416182944 1 -1 0
1005 335 5 -0.35 2.750328117656674 26.658535790323064 27.65631664442392 0 -1 0
397 133 1 0.269 1.0512846100431208 27.352515246623987 23.571505831496527 1 -1 0
284 95 2 0.129 4.7933715878699 26.260171963351713 24.91358889470859 0 0 -1
285 95 3 -0.398 4.856266218739796 27.374114828496836 25.21989684204348 0 0 -1
283 95 1 0.269 4.709657040298905 24.777482237920864 24.5058842802784 0 0 -1
117 39 3 -0.398 4.492486896761886 24.50486127202591 28.655052695351948 0 -1 -1
855 285 3 -0.398 6.489917376778324 28.287350105683377 28.514069622836885 0 0 0
854 285 2 0.129 6.732099765086715 28.8691662708457 27.543767277817565 0 0 0
116 39 2 0.129 5.599985180516526 24.79552259519025 28.488882461265572 0 -1 -1
1003 335 4 0.7 2.75681984499466 27.81685940895797 27.59431461228538 0 -1 0
115 39 1 0.269 7.074096984304035 25.1824011065758 28.26770514018258 0 -1 -1
584 195 2 0.129 0.28227804288619074 28.83878783832858 29.178866835856084 0 0 -1
1004 335 5 -0.35 2.7633115723326473 28.975183027592873 27.53231258014684 0 -1 0
853 285 1 0.269 7.0544514314608975 29.64358018126055 26.25226718159478 0 0 0
648 216 3 -0.398 12.00221848849977 24.47868371189808 22.975740340520655 0 0 0
582 194 3 -0.398 10.965765495463701 29.52181761092059 22.949937850433244 0 0 0
333 111 3 -0.398 7.854009647848764 24.535617340697435 24.282514377229816 1 0 -1
756 252 3 -0.398 10.192839524443592 28.527046345487634 26.915421215554545 0 0 0
656 219 2 0.129 11.662884770604323 26.83143385687071 29.67145535328382 0 0 0
331 111 1 0.269 9.63823056119617 26.338914554816988 23.366826717638254 1 0 -1
332 111 2 0.129 8.619431819425682 25.309223153354584 23.889688785035734 1 0 -1
754 252 1 0.269 12.516455665332126 27.65980032095986 25.855939567416506 0 0 0
755 252 2 0.129 11.189659648658656 28.155001981238975 26.46090869538557 0 0 0
127 43 1 0.269 10.88395559169869 23.32453880642481 27.663222778054312 0 0 0
834 278 3 -0.398 14.604549999170061 27.06353993716084 23.336119592418754 1 0 -1
657 219 3 -0.398 12.639295250264752 26.74994710037638 29.05612496745358 0 0 0
642 214 3 -0.398 22.350984586865643 25.513382666344377 29.943073760982994 -1 0 0
277 93 1 0.269 18.884237066607913 23.19996713124779 25.744798274131387 0 0 -1
327 109 3 -0.398 17.62728934047154 28.236292781207744 29.416791446382256 0 0 -1
774 258 3 -0.398 15.576827186980028 23.79632314138741 27.15228077537066 0 0 0
773 258 2 0.129 15.653290677693672 24.925099762014696 27.39449075723334 0 0 0
34 12 1 0.269 21.599731150952145 26.78355752992843 23.838528399727547 0 1 -1
772 258 1 0.269 15.755065764728252 26.427533639081265 27.716879151415306 0 0 0
448 150 1 0.269 16.210111030936627 24.456760275246573 23.83158774236837 -1 0 0
389 130 2 0.129 19.40386441028847 26.751903285684346 26.71836512520165 -1 1 -1
390 130 3 -0.398 18.819365131793667 26.710337002002763 25.720726995668123 -1 1 -1
388 130 1 0.269 20.18184962107671 26.80722919481973 28.04624993028517 -1 1 -1
546 182 3 -0.398 19.033108112426685 23.406879037564096 29.594593925360293 0 0 0
1047 349 5 -0.35 21.616709942780147 29.92528563362206 23.372993378075446 0 -1 -1
576 192 3 -0.398 16.34350780564473 29.95595618385597 24.126911906748795 0 -1 0
1045 349 4 0.7 21.34299446752481 29.991951678160536 24.498264668525337 0 -1 -1
760 254 1 0.269 25.56934133708655 29.52032949140893 25.439112049410326 0 0 0
511 171 1 0.269 24.927188861357113 28.576440325687102 28.81981392321432 0 0 0
1034 345 5 -0.35 25.198156491480074 23.051131690344448 29.67227572523301 0 0 0
300 100 3 -0.398 24.631769172817503 29.206412623456263 22.50846150265449 0 -1 0
565 189 1 0.269 25.356875935683153 24.60973854721251 25.073196638417038 0 0 -1
958 320 1 0.269 29.74532818230313 25.279690803978454 27.457528139863292 -2 0 0
53 18 2 0.129 28.92295191356772 23.643561959481328 24.04351278205757 -1 -1 -1
1033 345 4 0.7 25.84443175147048 22.66325156221127 28.790528995993558 0 0 0
35 12 2 0.129 22.517291209571283 27.247758603425233 24.984914417694586 0 1 -1
566 189 2 0.129 26.05463368378223 25.638345546352806 25.982428053562625 0 0 -1
36 12 3 -0.398 23.206652889975405 27.59651226708484 25.84619274418021 0 1 -1
960 320 3 -0.398 29.719288887022945 23.491590754776702 29.476396429065133 -2 0 0
959 320 2 0.129 29.7304596191843 24.25867705693704 28.610311664287035 -2 0 0
567 189 3 -0.398 26.57885817375018 26.411136648953665 26.66553243494148 0 0 -1
54 18 3 -0.398 29.14958963693644 24.77629061046376 24.108398416754763 -1 -1 -1
512 171 2 0.129 25.794502084780255 27.92721709885077 29.91428958498582 0 0 0

Velocities

179 0.0004279712820342925 0.0033750469120930942 0.0012609496777075274
379 -0.00034543536628571633 -0.0015580929836344795 0.0024166352746896867
259 0.002406113989424613 0.002619442849196618 -0.0034057732840764026
180 -0.0013460275063696776 0.003614738690281637 0.0020372104404225403
260 0.003297555315453687 0.002060810325079124 0.0009146975489414495
590 -0.00566553656722456 0.0007839534002686869 0.001476978973554373
324 0.00405891499225268 -0.0020936836081985846 0.0002687212869052646
589 -0.006271025998804931 0.006666283754609363 -0.002743102915625949
742 0.0020089121320107546 -0.0011666013155177974 0.0004721348214239187
519 0.0020117936555563948 0.0035331715492628655 -0.008939058682327262
518 -0.002845250026166634 0.0029941773461651298 -0.005193556860148793
517 -0.00931011369933296 0.002276760688627969 -0.00020818710547738147
380 -0.0011447233562752951 -0.0013955016898240513 0.0015213301526213936
381 -0.0017452273851181152 -0.0012733470619418017 0.0008486885771454097
261 0.0039672940259833185 0.001641110435206441 0.004160661674786684
591 -0.005210633143628141 -0.0036354337555574074 0.004647521016269723
486 4.908388491886399e-05 -0.0008009008252277082 0.003631066869999383
789 0.0014177082767644355 -0.008503209885576835 0.0007079150909733135
524 0.0029741133777133905 -0.003066854570362947 0.0010721413046600723
525 0.00350281761312923 -0.0008269174243513895 -0.0005996679609306225
430 -0.0021366391819284242 -0.00015870242830100115 -0.0032720627212007238
431 -0.0042808180551654265 -0.002882646209203855 -0.003592352667058849
748 -0.004565647828909327 0.0047473240566404526 -0.005213042979859979
432 -0.005891736857980499 -0.004929141634206839 -0.003832986087421097
1029 0.0015978632741759941 0.0017994685293410287 0.0015804492755751452
1027 -0.0007738653348895817 0.0021492122952269095 -0.001185125967267434
1028 -0.0031455939439551475 0.0024989560611127703 -0.003950701210109989
749 -0.00482864723896077 0.0014643779520101409 -0.0037710110098852973
316 -0.00344416485663011 0.001673138198886503 0.005390522162883453
750 -0.005026238354174742 -0.0010020951928322482 -0.002687614263612116
946 -0.0018666686368301313 -0.0009759207989783822 0.0037721627998419534
889 -0.0028645387634486843 -0.002101586728541425 0.0010665083621538296
966 0.0009694715598044745 0.005850061497662207 0.0019910835968232725
265 -0.00013565495587457245 0.00443320437123331 -1.2550900037893884e-05
842 -0.003213501335848307 0.0004034621777198492 -0.001234586523598834
241 0.0023076597716910714 -0.0040317633680607996 -0.0011396323923289595
42 0.004501527125188715 -0.010670929986122554 0.004003942244795127
219 8.176846332401595e-05 -0.001572058853181178 0.0021697373622398004
218 -0.0008854191788941882 -0.0015601101327706224 0.0008316451207551205
242 1.3477842813843584e-05 -0.004203765232368992 -0.0012289979045739475
243 -0.0017101380608945675 -0.0043329900096446905 -0.0012961380978645006
799 0.009147962946513634 0.0035558579746938416 0.000653319739033049
217 -0.0021727735168510006 -0.0015442060451022939 -0.0009493938177811045
948 -0.006817930181004944 0.0002809726317600015 -0.006899467513095756
947 -0.00469386284447908 -0.00025822859158605585 -0.0023213895479237356
800 0.0021756957188702017 0.002624936510227715 -1.118408046922611e-06
40 -0.0016471609481143515 0.003571377041208688 0.009162717839005364
41 0.0018637695794669297 -0.004561048921746492 0.006217032108533076
81 -0.007795371299863939 -0.006052637555633342 -0.0009630885905846747
690 0.005348487338270829 -0.000621841342475199 0.0036043742867679063
133 -0.0065112979408685386 -0.004133010701028749 0.00558243156467648
688 -0.002201513386117653 -0.009494640305184744 -0.0024024191447501253
689 0.0021095734197993953 -0.004428229329073251 0.0010274888584155166
1017 0.0002885282202424199 -0.0011928929206711037 0.0056099170869431305
387 -0.0015593549855868196 0.003188624002707424 0.0018261282801127895
637 -0.0019068318937994545 0.006033916292616869 0.006009597046075406
740 0.001488644200215149 0.003322387001275029 -0.0013512249023395688
739 -0.00037744831738640867 0.007211017789162565 0.0003812743401804728
301 0.002069193924431845 -0.0009457093464861552 0.002364154927901443
302 0.004083049755262734 -0.0026062547333873644 -1.3354781060776638e-06
79 -0.0016494920543265773 -0.0030515433574626726 -0.0024910746369107934
80 -0.005158818727714609 -0.004765182610404024 -0.0016185872393052242
303 0.005596057025568818 -0.0038538203260137984 -0.0017785253480740737
764 0.002338575045837066 0.0004487761398344509 0.0036528164119048567
763 0.003160036054791213 -0.0024813116023975974 0.002851513342637255
743 0.0016865888848188785 -0.0007062705501895994 0.0008483034755802889
765 0.0017214124566422985 0.0026501472552646387 0.004254834367192284
638 -0.0002874524978911517 0.00790019338805414 0.0009658872246176675
639 0.000929185139164634 0.009302324946119678 -0.0028234454139710254
178 0.0027892142674639455 0.00305601031882571 0.00022772446199351018
323 0.0032899715794090334 -0.0012674482381898286 0.001104949267205047
322 0.002266485965079552 -0.00016770539479009816 0.002217992559911755
16 0.005708473080463513 -0.0015506809480915914 -0.004515002347355613
17 0.004506005229310385 -0.00017032116357111016 -0.006449694749660104
18 0.0036025926943856024 0.000866741349864075 -0.007903226638923934
293 -0.005714141270683294 0.0034692505284341967 -0.002284938205501874
292 -0.005165334215683066 0.0015624294352668932 0.0003216955879095781
294 -0.0061264592983685225 0.00490184273933977 -0.004243298789253223
312 0.0012462592213711174 -0.0017081722706923056 -0.001735537438408011
22 -0.0016713787941245292 0.002391208586711904 -0.0034517579400723556
94 -0.000872822745714532 -0.0013007678845981196 -0.0009803783281243574
95 -0.0003612596799984545 0.0005610538773639364 0.0006025704201519744
96 2.307698690641566e-05 0.0019598381491756833 0.0017918377589543853
780 0.00208066360911838 -0.001804140403578197 -0.0004959806316330575
527 0.0024020889017168324 -0.0028196814363326 -0.0032290896435223167
317 -0.00010378350771020171 0.001801069950658802 0.0022733753243962345
521 0.000652457913686993 0.0001271937167819302 -0.001371494086749407
520 -0.002953696310718294 -0.005653442652347172 -0.002407698001413883
193 0.0009497006667599803 -0.0010321630491530807 0.0053750501518283495
318 0.0024058406615757137 0.0018971849096202091 -6.853304711657146e-05
523 0.002270392960651683 -0.006048274799280674 0.003297367120571621
194 -0.0008049818334135541 -0.0009412150032487431 0.001187864314361616
195 -0.0021232725169854864 -0.000872885854475157 -0.0019579629674234492
201 0.0014347269361158223 -0.0010983414166325692 -0.0004189001314884079
658 -0.0036188797258893584 -0.0012196560905710263 -0.004194813984298263
659 3.362274700022239e-05 0.002933708553226334 -0.002246565079610959
660 0.0027777431113724556 0.006054126016131242 -0.0007828482077127824
528 0.003255685758659488 -0.0032504315312018306 -0.00692218928314191
200 -0.0026435617341306716 -0.0021460143792295136 0.00027680918444281154
801 -0.0030625595943658346 0.001925536422963218 -0.0004927969380284405
49 0.0095230790292699 0.004302963957064143 -0.0005891471247955746
403 -0.0010692554052824932 0.003041055727881588 0.0017476794476106745
808 -0.0016815417072303972 -0.009064723736849798 -0.0005020503419817217
862 -0.007849782092983149 -0.00041920021437918904 -0.0069647121760456135
863 -0.007046415339518957 0.00017809993831887494 0.0008427516122638123
864 -0.006442846940974764 0.0006268507673264397 0.006708489016857317
132 0.00920013590140906 -0.0016624411917834435 0.0008339189150700249
931 0.0003947764094848062 -0.006700441599412768 -0.0038042170573538772
809 -0.0024226329586921037 -0.0018145481445666033 -0.00040833593790320406
233 0.005079242755813302 -0.0017637536667776442 0.0024435437471724965
1025 -0.003024009812554684 0.00015441658720168798 -0.0011681582491790063
995 0.004396275576598815 0.004831572538877897 0.0007392631248276053
932 -0.002062787940085182 0.0025255269221393798 0.0006949228684547165
933 -0.003909152844275086 0.009456985090604188 0.0040751208516758355
386 -0.0024621731953007714 0.00023234606863314696 -0.0013891492542635756
996 -0.0009171888491364924 -0.0033345766342849923 0.005159185140115636
506 0.0018753345558543144 -0.0008576274325076508 0.0007739334438995374
810 -0.0029794138534590857 0.0036324993621033156 -0.0003379284278260422
376 -0.007673736342472976 0.007462969855361475 0.0049053363191620715
377 -0.0024356870169551055 -0.0037399529499533143 0.004968043285779498
232 0.005067310670189801 -4.477378932782176e-05 0.005082408448167933
516 0.004357611844809102 -0.0018079094302670003 -0.0019195000490811562
994 0.0017395433637311629 0.0007484979522964521 0.0029492241324716294
225 0.0016813021061908395 -0.001167419091280529 -0.004701830768307647
224 -0.0006768396398185616 -0.0005657858212229736 -0.005187790396947461
514 -0.006755032451016831 0.001487362996952742 -0.005729532498127853
515 -0.00040965899325934264 -0.00039425344276487273 -0.0035539856047159552
223 -0.003815593562769713 0.0002350052210316797 -0.005834616523226905
71 -0.00024361264535853754 0.006305194738166382 -0.004334947297159088
72 0.0005787056547699544 0.008552228258463917 -0.004324739374706066
268 0.005168024708397745 -0.004510894971576622 -0.0001729578158309649
507 0.0028500320602747155 -0.0007012094510750653 -0.002526777559727861
785 0.00019985576768939684 -0.0008044032129665425 -0.0012020197593460833
784 0.0018378460124929639 0.0008642678226599085 -0.0035712285247016485
828 -0.0007889671955109315 -0.0036791629718678507 0.002136848169966396
827 -0.0030165473211760763 -0.00344498001513175 0.0021024334412369184
826 -0.005981520003565299 -0.003133275820340402 0.0020566264557197226
166 -0.003979705943400443 0.0007569223024721433 -0.00412930006601453
167 -0.0013736706407749353 0.0006361318585082949 -0.0012392397908704237
374 0.001924336542142593 -0.004244222064118014 7.972017173647349e-05
375 0.005192287232771503 -0.007987285679725595 -0.002606242845025592
791 -0.0036197949792622715 -0.0016079918121340822 0.0007500073622036522
790 0.0005944527367785055 -0.0002744976853440585 0.0011403732709377333
786 -0.0010307641759714607 -0.00205807359492745 0.0005779637091710504
668 0.0003660235635220067 0.004866480531161263 0.001221138620302804
669 -0.002161333807654822 0.005664078691215901 0.001485347957438942
394 0.0071809519806513705 -0.004094175972788128 0.0045825061219166435
168 0.0005842402976261739 0.0005453821548289565 0.0009320587405203145
204 0.002460178530290927 0.00043518239096012224 0.004672397353588778
88 -0.0012446715561184973 -0.003078830669605115 -0.00032836312444523745
992 -0.006008729770639321 -0.004404136489425345 0.00558635507452456
991 -0.0038962475242281334 -0.0027218431537200734 0.0035895852236861115
993 -0.00178376527781695 -0.0010395498180148085 0.0015928153728476725
758 -0.0035138652416162723 -0.0007051343813818982 -0.000785415544155513
759 -0.0016604419329303661 -0.0006164527427350475 -0.002974076573464275
364 0.0013226609022231003 0.0022448229683615793 0.007486266316155076
61 -9.626680838235825e-05 0.0020156108698667504 0.0003084879625498242
62 -0.002882852377883445 0.000360042741245064 0.004711498012632719
757 -0.0059808245288905 -0.0008231721718020796 0.0021277547109313445
1041 -0.0001850795080975566 0.007647210348547947 -0.001913352134263858
822 -0.005270561706148807 0.0030849938893542463 -0.0048255268423313
305 0.00036073443402233725 -0.0025937852242656806 -0.00422632959274526
1040 2.8831461043710976e-05 -0.0011836544391396514 -0.0035443991830265468
280 0.0012463249824233055 -0.0006708332959378433 0.0010431474276943163
281 0.0008912454634764841 -0.0005456967365951382 -0.0012588589814033883
732 -0.0016643574634081938 -0.0037934651604693706 -0.0007067443955408878
282 0.0006244746820339825 -0.00045168180207597487 -0.0029883534069397857
1011 -0.007830749483956118 -0.0026000266595122513 0.0014702517633292966
306 0.0005585610271498177 -0.0034382679598499383 -0.0039348334308786865
1009 -0.00512394075077924 -0.0011287123794436317 0.001032536701023826
1039 -7.812402352692947e-05 0.003231777954704135 -0.0027288756586452056
922 -0.00017798590092489748 -0.00035799686516115644 -0.00036121957947782626
481 0.0016204715255998896 -0.0007543491119884014 -0.0013241815830311804
237 0.0027576682471558856 0.001481242002134816 0.004800032490430254
304 9.742159615170614e-05 -0.001469754616832873 -0.0046143192982547885
821 -0.002232149266842081 -0.0008389251271944684 -0.0033619948303616493
731 -0.0022357373603855463 -0.0029070264877101705 -0.0016539630624085606
236 0.0031231880485248654 0.0010865983643948667 0.0023790360137001753
378 0.0014996526386450429 -0.012156694304335917 0.005015154948361527
792 -0.006785953815274727 -0.002609844217780873 0.00045672596194044966
741 0.0028906370851923993 0.0004008637405049785 -0.0026528493332458707
1010 -0.002417132017602361 0.0003426019006249931 0.0005948216387183572
984 -0.0032748213553444932 -0.004093059757836006 0.004288095679819835
561 0.0025550853413606224 -0.0010023631046498947 -0.003695591448040484
560 0.0008172198561828592 -0.001757229018330999 -0.0027869903470436994
482 0.0016457370872192646 0.000767890383712368 -0.00242617254881991
820 0.0018120643515955707 -0.006061773256395004 -0.0014139919795118042
483 0.0016647190708514847 0.001911546939897942 -0.0032540969302598836
677 -0.002006633812023309 -0.0005844269149508935 -0.0022440806925190992
678 0.000711918269056977 -0.0012197213212104888 -0.0044070938420808815
676 -0.0056251041705916984 0.000261168059672956 0.0006349515030946975
559 -0.0014959286720572006 -0.002761977079756149 -0.0015776163664602515
444 -0.0017012227605097793 0.004007443159300778 -0.0011170749916358878
861 -0.001762431548323708 -0.00038675384034173065 0.00044889060775253793
860 -2.963388114651989e-05 -0.0005161333938745712 -0.00560293119063601
90 -0.001854814767915939 0.005476853037918544 -0.007725119744780581
703 0.0068267595011458895 0.002909928746186545 -0.0021693585978695175
395 0.008137230171200185 -0.00019036556276031747 0.0018739543973342728
485 0.00043613380529657807 0.00047581803708423865 0.0017010978026791859
783 -0.0009626661559631266 -0.0034743258226667562 -0.0007445614839677946
782 -0.0020937536662547444 -0.0016820710555000477 0.002292155993182956
781 -0.003599263403375819 0.0007034711583605647 0.006334113568647224
484 0.000951308288772528 0.0021751672574475836 -0.000867746072578476
778 0.006938158257103861 -0.006640233969690288 -0.000385065377954529
779 0.004164505399151442 -0.0038788012326444513 -0.0004483985224354035
838 -0.003184644868892141 0.006898696109162405 0.008413262387746272
839 -0.003760850879399247 0.0006527260029699263 0.001716473983106616
882 0.0032698232797022738 0.008874540648117737 8.304012654215646e-05
881 0.004389055437260898 0.00470776596629773 -0.0010451712784097479
704 -0.0005340582745684674 0.0016278805499452245 -0.0015194147365900068
840 -0.00419375370677375 -0.004039863226162986 -0.0033148144481713413
908 0.0014988677794365412 -0.002298230557925713 -0.0009863601915858354
682 -0.00615825151741449 0.004116633943477137 0.0038844384063582635
89 -0.0015930662710491835 0.0018065059672456255 -0.004551946808285223
401 -0.0030260924784069137 -0.004256681299969389 -0.0030497045857777365
909 0.0017026126811969286 -0.0016097512666288258 -0.0032574559808060395
906 -0.0014129635055698377 0.00424053173433332 -0.0034132117835979124
199 -0.008071880275340358 -0.003540496974215938 0.001202818126996036
905 -0.0020390756951283525 0.0006992510581298522 -0.0016967428470035495
297 0.003698883303841554 0.00043752540759633887 -0.005644817538941171
296 -0.0015481950211734554 -0.0012921677440177397 -0.0029243346730750603
295 -0.00853220592914502 -0.0035944386631929183 0.0006967056151131871
45 0.002874494584745428 -0.001910151080038213 -0.0001761566380359303
44 0.0033200051023194147 -0.00033584467528870236 0.0008394102940076392
353 -0.002206504513452929 -0.00023194243913771898 -0.0013306312712426144
43 0.003912992308079089 0.0017596020518627587 0.0021911588465980385
352 -0.002293936753813471 0.001228663158825732 -0.0040597611556901165
28 0.002051685951402278 0.0006928188159089863 -0.0022666663219824586
354 -0.002140816784818429 -0.0013292935279972736 0.0007197604666182732
904 -0.002872448877427501 -0.0040142945264451824 0.0005879262647987859
683 -0.0009006102829538037 0.0030817175769123862 -0.0015489492702775473
50 0.0032235646831430672 0.00214797682103528 0.0019523760727256896
340 -0.002230494194666196 0.000972934094627653 -0.0006216243569985835
402 -0.0037085986458702796 -0.008515077880608065 -5.7005660783980214e-05
51 -0.0015092522639145733 0.0005289377844213824 0.003861819150343948
131 0.0037795975823368176 -0.0008164676780891717 0.002376820169372064
1049 0.004483545233722651 0.0007248739084609368 -0.0030170078634052266
730 -0.0029962603001825387 -0.0017271513312286035 -0.0029147381246179063
130 -0.0034352935251577834 0.00030954719752810387 0.0044304657455389715
235 0.0036097053295172875 0.000561316426521487 -0.0008433793485853151
753 -0.002578799823743415 0.003437415847518212 0.001049860460099675
752 0.0009388652250465926 0.003180481878365056 0.0016048968547765128
751 0.005620977735968464 0.002838495437141318 0.0023436661268614943
831 -0.0021128041308016137 -0.00501660414409331 -0.0029415816445396035
923 -0.00211241393186676 -0.0023489667420119754 0.006018824962890639
924 -0.0035657471992691803 -0.003844779824814832 0.010812144141799918
830 -0.0017344976639067271 -0.005336182978288793 -0.003387653416480424
159 8.225168395838687e-05 0.0027331141793421818 0.0008267362078373363
158 -0.0010027355111617761 0.0016546129039855541 0.0017301799727348552
597 0.003951871105830231 0.002775255587948138 -0.009061360791198295
596 0.0025628423835565906 0.0036884913066004554 -0.004578637178743102
157 -0.002446884413914622 0.00021909694542963107 0.0029326893918724343
46 0.00497600819916048 -0.0019495249634644144 -0.0035325242598687988
47 0.0014927885013269171 0.0010871094442557125 0.0010234262416141428
48 -0.0011241499339934798 0.00336852893109479 0.004446305936559444
502 6.465521422397238e-05 0.006738360023913082 0.0028314710517728906
231 -0.0009388213696293882 -0.0025054276055967674 -0.003978654234194045
595 0.0007140055362779272 0.004904034095472166 0.0013879958058558668
229 0.0008923221425581684 0.005364863439012674 -0.0032548323016969626
230 -0.00015326962932497962 0.0008708893163954856 -0.0036681381140979703
1030 -0.0003189359653338886 0.0002857069558874938 -0.0002258183097164707
1031 0.0017305967455429404 0.0009116914611890833 0.0025802815227711734
1032 -0.002368468676210715 -0.0003402775494140821 -0.0030319181422041193
156 -0.001929322117549596 0.007045160119717042 -0.0002741304710270867
155 -0.0001964002339077157 0.003233889513758621 -0.003092190881734369
769 0.0028557283576000543 0.0028912374650756005 0.0011237695111299337
835 -0.0029397138204920008 -0.005234012061956966 -0.0002777065159297625
477 -0.0002396039816012236 0.0012062444173375462 0.002196839199851828
373 -0.0024253990357040187 0.0007379023680649543 0.003654813556190738
476 0.000735201395612532 -0.0010484029801238897 -0.00031259662345984836
547 -0.0011611738784357058 0.0025198007029183962 0.0021846545306055906
118 -0.00219410760038325 0.002375301130699864 -0.004560383959226652
936 -0.0022041384491583286 0.0005585402076816513 0.00037617526566405865
770 0.0023855731112191417 0.004329853537046982 0.0005173678088819685
771 0.0020323460852043887 0.005410683923586523 6.177899751775098e-05
120 0.0009430398333732925 -0.004965303873066407 -0.001256495478384796
119 -0.0004027812941225583 -0.0018162197094188017 -0.0026738477113599636
106 0.0006381781103735333 0.00560780963821915 0.0009566018886973801
10 0.0020296868180838326 0.00010776124648077011 -0.005365263306985965
663 0.0029778055021671673 -0.0038582668663654203 -0.0036160853946202234
11 0.0029768392869004914 0.00019594276562923506 -0.0026586852593116416
662 0.002659331538521841 -0.0033312239918577057 -0.0007308535197791696
702 0.006165500300773262 -0.00519367655268185 -0.008069809164592205
701 0.006069548024605259 -0.0007774230215869466 -0.007036811042680527
440 0.00024664187963920026 -0.0006091078892094523 -0.004620361889451011
709 0.002723544954453441 0.003531275709902369 -0.0012631495040734114
700 0.005941832808271 0.005100736388859188 -0.005661861079202567
12 0.0036884337066543076 0.00026219342644402736 -0.000625236687130343
63 -0.004976410497307316 -0.0008837834436999334 0.008019473745065123
580 0.004884676000594859 -0.00044602235966464466 -0.0010484004612072674
439 -0.0057057214204809855 -0.0031383920090361193 0.0026415290244735253
107 -0.0013290287949517885 0.0033347794060967877 0.003963077873634122
661 0.002235433609382858 -0.0026297148935501154 0.0031094723983325265
625 0.003357220622631886 0.0014891057053912173 -0.0015913206152961955
626 0.001366060287072498 -0.00014998610175027694 -0.00347435001362536
627 -0.00012989588711075366 -0.0013814336477650216 -0.004889067555097347
1042 0.002527175795537693 0.001862381501134558 -0.000718237352598901
38 0.001751941244819606 0.002200454383218178 0.0010724215419743225
37 -3.1661483212985786e-08 0.001387010404203991 -0.00044446260182877753
39 0.003068196214035424 0.0028115937882307843 0.0022120546292341845
852 0.005844843757817421 0.0029998353676571896 -0.0009524886292705541
1044 0.005330960369462359 0.0016492734482334548 -0.0012060831588396417
673 0.006588101014028187 -0.004578438924588428 -0.0034066215949217866
457 0.0032187674641897313 0.0005754683170349304 0.0017297265086204888
459 -0.0033851293019068517 3.893559781490292e-05 -0.0019052482322745796
458 -0.0005520894211601931 0.00026910554818107687 -0.000345861589628825
1043 -0.0002766087783869788 0.00207548955403567 -0.00023039154635815645
794 4.682125532890608e-05 -0.0027130074808584073 -0.002817228847263421
795 -0.0018972988971011574 -0.0016522651411122408 -9.624087799307499e-06
443 -0.002938382538388708 0.001741675395649136 0.0014675442419581483
442 -0.004585077489065935 -0.0012741261220894546 0.004907746160484351
298 0.007140855901792744 -0.002259206068393858 0.0039893693809134245
343 0.0020171914801459683 0.0032952662783055616 0.006009795527726405
344 -0.00018421060734029744 0.0054929626727415895 0.002175223957436055
415 7.890394885876669e-05 0.0008717844996668249 -0.0030993048814198145
345 -0.0018381211367049814 0.007144089119730218 -0.0007056846833600112
532 0.0009521819677862355 0.001719354476481279 0.005044842885241372
416 -0.004516373030635893 0.0010128750053750512 0.0037374618812538265
475 0.002032695156121762 -0.0040494029732877695 -0.003652727278516011
417 -0.00796879865743804 0.0011188761190792148 0.008873915871132643
533 0.0007410801031824489 0.0008806923810005397 0.0036124739640482828
255 0.003568271790590099 -0.0024377075206834346 -0.003318024795980012
729 -0.003797168301941708 -0.005391376504266793 5.1135846123631206e-05
859 0.002276769236790271 -0.0006883412697955639 -0.013658078614593106
793 0.0026345006284855905 -0.0041248857895957395 -0.00655423086072471
396 0.00885568073383978 0.0027425621284099203 -0.00016097699574481013
6 0.002048970517957633 -0.0019087215835548 -3.1849259593078614e-05
836 0.0022589940424734226 -0.0037412425334387724 0.0002597808387724093
837 0.006164776508350679 -0.0026197267253247935 0.000663594390324614
5 -0.001341343392279172 -0.0017979414100334436 -0.0015598667130784186
4 -0.005853947905472486 -0.0016504898393999879 -0.0035937015258419524
25 -0.0009034060583189376 0.0010086908366377886 0.0021358575648968195
197 -0.0023527473278070975 -0.0009943372233558383 -0.0006109504296435211
930 -0.0007534340228160627 0.0010211799593005542 0.0023725311015736685
198 -0.005199350100246916 0.0013190892267988228 -0.0016277239532561266
27 -0.003395095130533825 -0.001275353155844969 -0.0007385686927604053
26 -0.002326172528919947 -0.0002955092925514734 0.0004945463165497196
196 0.0014361621532277525 -0.004073573812152886 0.000742404130739723
55 -0.001378265475075566 -0.009178531334837918 -0.004515244395024468
705 -0.006064231109959048 0.0006646794051067774 -0.0010311127576936435
880 0.005878785361755522 -0.0008383299801178311 -0.002546852837291282
253 -0.00020852686766103406 -0.005213535097775227 0.0016923446094444393
803 0.002407379929386724 -0.001264022003577646 0.002936215874743621
934 -0.002336896157165347 0.0010075394262562228 0.0005205421414573013
1001 -0.0015909951913836858 -0.002755213086076661 0.0034400624554867974
935 -0.002261090865978543 0.0007511587081973276 0.0004381079595063948
1002 -0.0008382607466131756 -0.0006366289881799016 -0.0014335254837383993
939 -0.002731854779805983 -0.003135443447735619 -0.001896865212028796
937 -0.002699639400325721 -0.0017902330373466085 -0.002383783105321131
938 -0.0027180345372925744 -0.0025583546658223483 -0.0021057506412239142
990 -0.0034210541105279767 -0.0009825222712760934 -0.0023290595266611176
988 -0.0008300743532900492 -0.0021684864929851252 -0.004195872618500562
989 0.001760905403947884 -0.003354450714694153 -0.006062685710340014
1000 -0.0012146279689984351 -0.0016959210371282837 0.0010032684858741912
400 -0.0021176573030451326 0.0014113660070172811 -0.007033072212822157
684 0.0030494487483910104 0.002304186254759495 -0.005631046375386423
804 -0.004301229273548457 -0.0022722317360926673 -0.0012823070230861622
369 0.0031023835960861056 0.001157292445610799 0.001628545467899513
126 0.00020080076620832736 -0.004724646842651926 -0.004461943901318138
368 0.004073904435373188 -0.00017527647013323926 0.002993726467557038
161 -0.002470646058269033 0.005985193387698968 0.0009764587009429211
162 -0.001024713293807415 0.00494926160640056 -0.0003253805813333869
367 0.005367026382220299 -0.0019489637045721452 0.004810821315847936
342 -0.0006300480636380659 0.0012965890344288724 0.0015973510556501658
124 0.0023889831510857636 -0.0015359129379641204 0.0008622133401296446
125 0.0011395204619084366 -0.003356695367782149 -0.0021779061080830302
849 0.0048463790183371136 2.711595035003646e-05 0.002614737434913167
848 0.004561517625317364 -0.00020781795607058723 0.0016988254993619092
847 0.004182358986380094 -0.0005205216863106586 0.0004797205894665421
341 -0.001316631739425811 0.0011577426253261613 0.000645421299463808
562 0.0031741998078190204 -0.002593302818383512 7.963616428594288e-05
693 0.002126939738623106 0.006903005070973724 0.007668127704823664
160 -0.004395223808719243 0.007364048135494602 0.0027092439167644535
254 0.0019480433710140689 -0.0036285241712934444 -0.0011686004718880249
825 0.007440762381809779 0.001536890122329095 0.0038938664936589936
692 0.002619489332370658 0.0022839028708043193 0.004999737041238295
510 -0.003440814432957317 -0.0015886921004722694 0.0037877806166321504
745 0.00322627981126617 -0.004242300904846653 0.001665186228117932
509 -0.0034944079850316406 -0.0020686525900203306 0.003608433467190593
508 -0.0035657425314399877 -0.002707493691060966 0.0033697172959373536
747 0.0019197848869346287 0.0014535164404896686 0.001271409687963112
746 0.0024802649119444885 -0.000989961745848532 0.0014403379256194445
952 0.0013818264202213597 0.004590650288054191 0.004818832387955998
953 0.0012318904483847287 0.005135111952507283 0.001854587162068103
954 0.0011192437474659058 0.005544165293917819 -0.0003724464264723481
504 0.0033526029991274723 0.004203989430004129 0.001074804053289384
503 0.0019420892478729831 0.005291222198692548 0.0018284057282042599
829 -0.0012309609663975428 -0.0057615515216431976 -0.003981387667810473
548 -0.0024707648482109887 0.0021962007239806547 0.0024507072449805353
787 0.0014106797299090251 -0.009929459386935142 0.0014738023897606098
549 -0.00345465884303566 0.0019530804800644464 0.0026505923037674233
550 0.0009653134864524863 -0.001283382026964492 0.00029548781991607523
551 0.000908494766596013 0.001375931542452832 0.002991324309635684
336 -0.0005510079653501651 -0.002155578744365308 -0.00043426483188399795
335 -0.0016942671485139396 -0.0028168483613395315 0.0007214995619573513
491 0.0003732681281618373 0.0004074683761422692 0.0013533831107722593
492 0.0017646012092230236 0.001539493189593921 0.0036457752213832494
334 -0.0032159777293887925 -0.003697017082290539 0.0022598549349181654
552 0.0008658069361583843 0.0033738703735020845 0.005016702763275663
788 0.0014146930640422575 -0.009115064046893691 0.0010364770504456549
490 -0.0014786358863880511 -0.0010992889382186052 -0.0016978561721498761
891 0.0003082751957228145 0.005454680885040548 0.0012471508293472877
1 -0.00010618210196299493 0.0035981494803501535 -0.0003332941228166861
710 0.0054478838323580156 0.004125778025522049 0.0007668873723786544
1007 0.0012949178378630125 0.0014961271135552757 0.000867846887116833
685 -0.004821500014459088 -0.006794890276120662 0.0003339309541061791
687 -0.0006364896695343985 -0.003914146699717762 -0.00437556295279957
686 -0.0024318389350434285 -0.005149971808319226 -0.0023552127673008892
3 0.0007155061181098924 -0.00013829924583371855 0.002010857790065275
892 5.025253645475126e-05 0.0074119362697474276 -0.0016597185819423187
2 0.000363005832375992 0.0014646192473790115 0.0010052279186509518
611 0.0010809864147261268 0.00022375926601668234 -0.00037324920475815366
711 0.007494676093225279 0.004572426843166184 0.002292051441245553
893 0.0012354387403302539 0.004907754214875613 0.0009073454955230485
843 -0.003155499918874507 0.00031761818098790466 -0.001376754044076073
1006 0.0006014626244368204 -0.0001667883425471035 -0.00016514344420694784
612 0.0005501794881727739 -0.0024492587413005315 -0.0018480760319373893
890 -0.0010528466992573153 0.002213078501312577 0.0011696560816487948
581 0.003729912547324011 -0.0002131118786197115 0.002936196650149906
894 0.002125867596099055 0.0030263654892349057 0.0028359774030733164
610 0.0017875055736648984 0.0037816224736817896 0.0015897873672868258
574 0.0022452381638301275 0.0053795170232519805 -0.00354113358549519
1046 -0.0021606298015975794 -0.006843579580347415 -0.003127704195478872
963 -0.0023629003979330205 -0.0008843327510996361 -0.0038002488116053415
456 0.00045733556143132484 0.0012863823989228678 0.0007601375122246761
972 0.002345143524835692 -0.001918888848089364 0.004397006809490055
575 0.0012242368727744476 0.0007502227934658315 -0.0018240882517693135
674 0.00020275246178348076 -0.0022310272522537253 -3.1413641227605673e-05
454 0.0016138109804501683 0.0026979906284667838 0.0008056867527113749
970 0.0024604033151474653 -0.002324942523373734 0.0011709111884805128
675 -0.004594551612857521 -0.00046741991141525116 0.0025043757109958734
455 0.000953457941781642 0.0018919555252047769 0.0007796779168383635
175 0.0017497136591684713 0.003214573135532875 0.0007670544843950613
176 0.00247607726781321 0.0007501120770601851 0.00044042906254958194
1016 0.005109942096837357 -0.005316609790563912 0.0028109010579064403
961 -0.0027809986416008543 0.00031059310069328185 -0.0035719191440816323
962 -0.0031990968852686867 0.001505518952486204 -0.003343589476557926
1015 0.0026992351585398925 -0.0032547513556175087 0.004210409072424791
177 0.0030217933036586365 -0.0011014343155715614 0.0001950358073059359
147 0.0021040295017415913 0.002497137243567861 0.0010969565764467038
146 0.0013420746618343408 0.004357240794077313 0.0001590206986840494
534 0.0005824795464638907 0.0002506066378374181 0.0025363370537752903
613 -0.003137752242381601 0.0006775526479443116 -0.002838856370007302
583 0.002371351952784971 0.004175724568184472 6.758889916119444e-05
761 0.0012737197050393936 0.0026364280588796556 -0.0028637527556321578
724 -0.00022015243160015225 -0.0013355540482100712 -0.0018854247043908184
971 0.0025756631054592357 -0.0027309961986581033 -0.0020551844325290224
725 0.0031011271063255295 -0.0009047449623577796 -0.0014742233011585102
339 0.0009789088693918798 0.00039595657532902145 -3.7963800249576256e-05
451 0.0008733391098166999 0.0008006863643016843 -0.0037461762939262977
615 0.003779523935862632 0.007006202661549133 0.0006802785152622357
614 0.0008120457978468242 0.004291242310885132 -0.0008294133876880224
338 0.0006562820070569579 -0.001150933449328454 -0.0009696670636692421
762 0.003810120055800312 0.004379793904280756 -0.0024727125351524677
337 0.00022685645131298264 -0.0032098881926063425 -0.0022097906813583427
453 -0.0034263070300286423 0.0025361724745331365 -0.0018342050013958509
452 -0.0015817795610627325 0.0017916572985829005 -0.002654431469863672
726 0.005596400109819032 -0.0005810786556492725 -0.001165288220937876
23 0.002312509409666463 0.0007854942503018158 -0.005109263592786381
472 0.002785429951993026 0.0022176051969502843 -0.001585528294980614
56 0.0018990603488865405 -0.004833829413581107 -0.0035457516997491616
264 0.0010559855494197525 0.0007434913291096079 -0.0022874004536355564
263 0.0008821491493847802 0.000746247424235208 -0.0025012587908026743
262 0.0006507679427695183 0.0007499158654568363 -0.0027859103372481035
473 0.0033439555931476963 0.0007062936605089862 -0.0017491574708893432
57 0.00436131098416197 -0.0015696605026108896 -0.0028173730968702325
474 0.003763575181989224 -0.00042915273407710306 -0.001872091858244146
212 -0.0018852702033568946 0.0026963213328994773 -0.003287009494779021
213 0.0021734117128364818 0.0004733118899371042 -0.005363450430796092
211 -0.007287491595697271 0.005655210306246118 -0.000523207384609363
557 -0.00020171166394603623 -0.0014087493975191074 0.00098620937740229
558 -0.0018911422952779923 -0.0019312056217583213 0.0003589640256271479
556 0.002046968692364442 -0.0007133452615395142 0.001821090830931866
24 0.005305599443293853 -0.000420876845299789 -0.006354545437065685
357 0.0036628431731191026 -0.006116448003059407 -0.0032785552209665444
421 0.0010910428189458005 0.003445062298714618 -0.0010293925660420113
1008 -9.19925889893723e-05 -0.0018297037986494838 -0.0011981337755307291
599 0.00014234276774179223 0.00032005535507689136 -0.0008442506272861475
422 -0.003920653674915557 0.0028692528612666007 0.0017279477541525257
356 0.0033928618741019996 -0.004494502213225565 -0.003205935291756687
423 -0.007685934742056846 0.0024366479787163685 0.0037995339557532273
598 -0.0004958758930457086 0.006323446548325795 -0.0010641975596246795
355 0.003033509064692889 -0.0023356461057544155 -0.003109276094709856
603 0.0005033086424685617 0.002026706077701515 -0.004838727179534848
601 0.003298430503899458 -0.004011533064061036 -0.0005279085440079109
602 0.001702402448058311 -0.0005636694087720808 -0.0029894067637748637
163 -8.994464675306387e-05 0.0026429183012986867 -0.0019057565421751591
139 0.005018878240995738 -0.002553100868522063 -0.0009992948179278012
600 0.0006218356187360404 -0.004190284651799067 -0.0006790047826655783
141 0.006633624051432342 -0.0016681137436328026 -0.0020926906818270826
708 1.3699252438501789e-05 -0.001820181935458227 -0.0007948908168148082
823 -0.0008204736267315039 0.0009388672743187474 -0.0033417490099429525
706 -0.005566705206452654 -0.004925025537814292 0.004485566121679824
707 -0.002380267361924515 -0.0031521448749932597 0.0014703997570963089
165 -0.0032242842565713436 0.00014614890372577067 0.0003155964772856304
164 -0.0018796676720108166 0.001217250940430211 -0.0006373532607626214
824 0.0038967319547121688 0.0012803412031047823 0.0007898223195145948
140 0.005940905882105256 -0.0020477689544214084 -0.0016236291265688445
145 0.00032789103741154714 0.00683309167375283 -0.0010893987064624455
777 -0.0011296156647759492 -0.000514478478908509 -0.0037015687734151793
65 0.00032757485686460213 0.0003490580140686295 0.002085295720384398
999 -0.0077857169719318334 -0.0032788982760625683 -0.0012313128296776435
385 -0.0036638499826469155 -0.003702544180696496 -0.005668775358792188
269 0.0008737029341553779 -0.00031410248011419983 0.0004046722158431099
498 -0.0017309640819423912 -0.003303199312270904 0.003460531752447664
997 -0.005745936458184281 -0.0030409981329691063 -0.0037090154280211628
497 -0.0016976517354790302 -0.004295376281902187 0.00324347168586869
66 -0.0010779770876063687 0.003203983852098867 0.003141693005336164
270 -0.0023526154377916434 0.0028389422683416507 0.0008386449084709648
64 0.002198404584163899 -0.0034509297046578552 0.000679200803508219
496 -0.0016533120522002264 -0.005615992127392406 0.0029545585462562264
691 0.003275086890167752 -0.003864253903837783 0.001448032960061573
70 -0.0013381417570248056 0.00331432903267098 -0.004348534333094822
998 -0.0037061559444367333 -0.0028030979898756416 -0.0061867180263646855
812 -0.0011699098272766363 -0.002673722093916162 0.00018934513701196237
811 -0.002214629271693743 -0.0041570659393473305 -0.0018670279001929966
568 0.004005616236813987 -0.0019863939423298976 0.0043259608722655465
569 0.0005484219647853292 -0.00192308864020158 -0.003603908625186371
287 0.0007032574921262787 6.705345479182608e-05 0.002645618899791569
813 -0.00038501346546456784 -0.0015592877892643112 0.0017342955292497172
288 0.002162771854569959 0.001774946597779787 -0.002027519353226615
286 -0.0012393977526129313 -0.002206201031121279 0.008865699201993827
137 -0.00037744488317265583 -0.0053691468432300596 0.004052292206034524
310 0.0037666176499959033 0.0018682162468994692 0.005568162954256908
570 -0.0020489636019270807 -0.001875527448927216 -0.009561609280090146
138 0.0006996236345196789 -0.005656242368741398 0.004135324107928364
734 0.0003150771223204094 -0.0007612518734389977 -0.00643988672889644
185 -0.00045950919154333207 -0.0014838641706872496 0.00016056277148947517
653 0.0006793876187286942 -9.204211474792202e-07 -0.0005325293009099284
311 0.002327480838693653 -0.00017391883544807212 0.0013977148249636336
654 0.0034145676804925246 -0.0005301811048304797 0.0008551392472937047
652 -0.002961215056393427 0.0007035406444288506 -0.0023795557177064574
522 0.0033617568991655394 0.004470178313588688 -0.0005929954313813524
540 -0.0025449783346381005 0.0017302944475192077 0.00292082775326258
526 0.0012659271388026634 -0.002246340774190328 0.0016865313115461012
539 -0.0017842309566067436 0.0014795828892106748 0.002737861850013273
359 0.0035755453526573346 0.00019323936164915038 0.0004213947556376395
360 0.0016229656952527812 -0.000334201447784175 -0.0018646059117340204
358 0.006174484568217433 0.0008952781226926477 0.0034641268453112473
276 -0.001579407668172742 0.00024155369345976925 -6.173100909937033e-06
895 -0.006057069568050698 0.008685752815534568 0.0067290770809507044
186 0.0011798415847663274 0.0015097231222962984 -0.00020414235753329644
275 0.00011485172980692097 -0.0007267817079762413 0.0018134405710975533
538 -0.0007716544983800479 0.0011458786542969841 0.002494329014227679
274 0.002369959312251761 -0.0020156637461884045 0.0042353982676330325
257 0.004966487485834615 -0.0007948433074044931 -0.000734597253917437
258 0.005443161454974465 0.0009185383771168399 0.0011624363183204334
91 -0.0035781419938589387 -0.00417056536494856 -0.002926738507813669
256 0.00433202083719558 -0.0030754031986429276 -0.003259603045833008
720 -0.006005219995054296 -0.002751939226927355 -0.00027081376115342394
470 -0.004470974014149373 -0.00021267703462788352 0.001042209394279645
469 -0.0005878033767651829 0.0028467212703678483 0.004398654339872497
471 -0.007388395070937352 -0.0025111990079266433 -0.0014794833343248553
714 -0.0016777876227485674 5.415260529866538e-05 0.00241975378880179
713 -0.0012638644722713208 -0.001804617656343161 0.00018456649103421133
234 0.005088207316246028 -0.0030552210162643027 0.00046096812441164415
719 -0.0006204663564016576 0.00010305963199075537 0.0003904417061789422
1024 -0.004988904848230777 0.0011157544071336352 -0.001552861048331732
712 -0.0007129209530535511 -0.004278693890507736 -0.0027905315543954065
405 0.0006041109608372354 0.003412091420821703 -0.012954284349159984
1026 -0.006953799883906866 0.0020770922270655786 -0.0019375638474844578
410 -0.0001428002209779981 0.0025524300769725413 0.003938687028179123
411 0.0006330368193962902 0.0015455139742359659 0.0037513922577393877
409 -0.0011754614501710851 0.003892664129016038 0.004187981709663302
544 -0.0004806257555653127 -0.001136722266909907 -0.0006824381452182469
718 0.006546794320802384 0.0039031445436017186 0.0012705915935530556
404 -0.00011375514431683432 0.0032529188970057076 -0.006647212746318438
505 0.0005779843771097917 -0.0010658242271543114 0.00516727393273809
968 0.0020478858835443815 0.0008829195621752599 0.000819898709738098
604 8.500077734858785e-05 0.004557041145020525 0.0001728551306331102
903 -0.00021109305369222686 0.00010712670125541932 0.001585361328024803
902 0.000821867671973023 -0.0007973581659004032 0.0009453642986406232
901 0.0021967678599803552 -0.002001253321838141 9.350999850956591e-05
969 0.0010312803145260793 0.0025456427546887445 0.003598810143625797
967 0.0015395830990352275 0.0017142811584320032 0.0022093544266819495
605 -0.002453502273877537 0.002086732144407001 0.000776984878252501
573 0.0038471940816151256 0.005306561112104226 0.0026514932890693787
606 -0.004360676319506523 0.00023079220043957125 0.0012308667730548599
142 0.002019712561703996 -0.0025626358691923754 0.0008611983589725699
572 0.0034484326853325394 0.004436602808742916 0.0027605989539523494
571 0.002917669893392022 0.0032786634939836945 0.0029058217058276943
879 0.004728554893447187 -0.003955899502145814 -0.002757248554439244
733 -0.003583082534198581 -0.005009067686045641 -0.0008302426811622248
460 0.0008575910108387964 -0.002794397752300228 -0.007115270448404454
461 0.0021588826257306843 0.000888157509235196 -0.0033615748691405156
462 0.0031365413260098667 0.003654856494687453 -0.0005414282553688346
436 -0.0010512047799940412 -0.0013999631083884642 0.003988429595484117
239 6.509395553323051e-05 0.0009553083495311962 0.0035570443331763247
877 0.0013564188642378528 -0.004412301471517145 0.0019714613028076317
437 0.0007589078954371146 -0.003783031256961203 -0.0029363942122262515
438 0.002118843197692872 -0.0055734272620902164 -0.008139005345681362
240 -0.0024291043235569743 -0.00033869003859070355 0.0019420285914135832
878 0.0032819247911871955 -0.0041516937470707765 -0.0007286548188683786
965 0.00023838763043907844 0.0018197029808020289 -0.001776896442311002
153 0.00038126015670988944 -0.004677873244969245 0.0019548237903740024
152 0.0008937830934194446 -0.001917586507375043 0.0011309332263174526
896 -0.004442686313960098 0.0032951036303326157 0.0020327955762280375
238 0.003384943004624761 0.00267765711159491 0.0057066763490057374
964 0.0006039295951217773 0.003834882239232122 0.00010709357725613864
945 -0.00373007850961286 0.0006153499463986763 -0.0017288299124459143
944 -0.0025366855128387514 0.00013109445580757178 -4.0893031983906425e-05
943 -0.0009482453961299102 -0.0005134634141235509 0.00220579909931384
465 -0.008125071041703173 -0.0005422344193674836 0.0032077029202204907
464 -0.004328308964588253 -0.0012990697565622518 0.0021323855132579046
463 0.0007252896514506318 -0.002306439176856072 0.0007011073743448883
266 0.001371236409601722 0.0044922691421718265 -0.0013236594139188714
267 0.002503361935482289 0.004536644427870439 -0.0023086935376593204
366 0.0014010867006011294 0.0007242669383888838 0.009855564365614607
841 -0.003290702876159157 0.0005177229858159552 -0.0010453574989359577
897 -0.003229802271763462 -0.0007548841016665241 -0.0014955146192031981
655 0.00024480717114581984 0.0006674226444434682 0.0028140347734696577
545 0.0019838613786280243 -0.002323184402438103 0.0010733348152855713
805 0.003157670323386741 -0.0013786662564563921 -0.0006742324978435575
134 -0.0018216849615945614 -0.003354728917769722 0.003263778339373741
806 0.002423975290119835 0.0012022561811680433 0.000673146263451663
1038 -0.0016355744815586821 -0.003006279654418789 -0.0028382174195657225
494 0.0007570707560748942 0.0007213771436297403 -0.0017926020480611797
495 0.003171638653639409 -0.0006882142749051601 0.003225201156193442
493 -0.002456787983985034 0.00259758352612217 -0.008471441230906571
1036 -0.0031411273350732236 -0.0009174408537662223 -0.0017111491176382493
807 0.0018727511644770953 0.0031412998567079678 0.001685430176970218
325 0.0027488687135004096 0.003090888805072383 0.005072673547154972
920 -0.0009559381727767513 0.0026350993850346913 -0.0015573962547806282
1037 -0.004646680188587757 0.00117139794688636 -0.0005840808157107646
135 0.0017016151793275164 -0.0027700068247627765 0.001521777182441745
326 -0.00024283262158100537 0.0005231933973812574 0.004273256486797697
919 -0.0012714515713701754 0.0043739220566521506 -0.00210834791291951
426 0.0032498598007253453 0.0030425782587325543 -0.0007638081144510661
150 -0.005168355421861434 0.0032854297193415163 0.004609257477277007
84 -0.0030622223518902234 0.0025059806503056436 -0.0010783734980642408
921 -0.0007188933661711726 0.0013287241700597504 -0.0011434669895425175
83 0.00010372837165150838 0.0019990686108627017 -0.0016173835503751142
513 -0.0037328836175460904 0.001300793311439551 -0.0008819789468515185
148 -0.000636203490110474 -0.0002514903058751753 -0.003046148173062416
425 0.0007068117627071627 0.002286785403294309 0.0001587118198465995
428 0.0003191735332862647 0.0030451579510302564 -0.001083043931653973
427 -4.730949193812873e-05 0.0033592832081012717 -0.0005249143264406598
429 0.0005945117541853712 0.002809156053347683 -0.0015023659792070937
640 0.0041637992942910665 -0.001165636325116203 -0.00043790979838663783
149 -0.0032240840888855867 0.001768108077081333 0.001325125353642339
641 -0.001433111343587242 0.0020428671033285457 0.002341729586771358
82 0.004317699084057959 0.0013243542281988069 -0.00233482130366703
151 0.0015759657403794508 0.0017564338693709168 3.4311386518764454e-05
744 0.0014444278478052451 -0.0003604246440306862 0.001130918496917249
898 0.0023289038058784644 -2.0075586069305757e-05 0.0027810423200548646
899 -0.0001305543385849119 -0.0004670270099952561 0.002872947521374181
121 -0.0033662741483728286 -0.0002492837332858515 0.004162308761899509
136 -0.0018110538004122419 -0.004987014510224471 0.003941774376374618
184 -0.002641531832439517 -0.005468414240864156 0.0006459957003529765
122 -0.0015962233727642796 0.0005586855590931533 0.0030245567176460683
873 0.0007131484603741726 0.0004398750908921427 0.0014323894762132082
872 0.0032049933257206555 -0.0009431106041341716 -0.001924784074030857
871 0.006521709913995142 -0.0027839040097871713 -0.006393277822843178
623 -0.002207549532471328 0.0019594765256022457 0.0012479241939739026
372 0.0017097952205358073 0.0013264101992760385 0.0016248490976198823
624 -0.002373997220782498 0.0007856154769067709 0.001792518697132888
123 -0.0002663865238168193 0.001165711839146729 0.0021697650843985183
586 0.0016252836284490067 -0.0012383875610709261 0.002983291069386642
955 0.0028723282410426246 0.006209596441620765 -0.001276619061540266
622 -0.0019860029119015753 0.0035219190623274194 0.0005230533773232281
531 0.0013250628360466964 0.006542491864809735 0.0012282815825302204
643 0.0008315108387157986 -0.0006867915107551773 0.002567349533957996
30 -0.004654716834086662 -0.0017880342240897008 0.004722152639902295
29 -0.0017777023651171816 -0.0007237602280650577 0.001723982992553141
644 -0.0005858603971362986 -0.0019807988509311374 0.003047017116382959
7 -0.0048758566325483145 0.00111297822341884 0.00024630079917425246
645 -0.001650729565890112 -0.0029529848850763218 0.0034073907481139204
907 0.0012276775039732856 -0.0032146161314755978 0.0020365330801506466
488 -0.0026237547230082443 0.0022598586500749565 -0.002126287115163048
487 -0.0019903967217878697 0.0035991989469016258 -0.0049986561920321755
489 -0.0030995957667822507 0.0012536140244720569 3.1720041939274374e-05
273 0.002993987077995979 -0.00023461566950346745 -0.0005638902227448914
8 -0.007048292455961327 -0.0025897660018528684 0.0021315178645657544
699 0.0007870059050875791 -0.003065056147172001 0.0032053620514357548
9 -0.008680440668746302 -0.005371632929540773 0.003547878997460542
698 -0.0007259854356265065 -0.0030663403903714347 -0.0013557166332811266
272 -0.00015825669647721738 -0.0001971782495813608 -0.001141009631774494
382 -0.0024901482449233812 0.0029512271102660565 0.000653705116891991
697 -0.002739820063716115 -0.0030680497546991163 -0.007426642453906846
915 -0.0012944754037625091 -0.0019051345309356409 0.007249132010411759
914 -0.0019314566849166505 -8.906594441209246e-05 0.004705585555425876
913 -0.0027792969381382456 0.0023281731422311446 0.001320052676706568
974 0.004649813723760991 0.0004500556847063847 0.0020082503422311293
973 0.0030954825368986983 -0.001769031700638427 -0.0033995049630643247
289 0.0006104562618896093 -0.0018651077594787069 0.008593514095817512
290 0.0017079522442286833 -0.0036890640303674956 0.00178091270851109
383 -0.002575746257919068 0.0026861316064219444 0.0005109627293535689
384 -0.002640055933916477 0.002486965698663739 0.0004037205589756764
1048 0.0008288848198677903 0.0005987980263672655 0.0008379806353436159
975 0.0015411513500363885 -0.0039881190859832405 -0.008807260268359773
271 -0.004353983068723304 -0.00014734797587345066 -0.0019091720258156259
651 0.008228586396356697 -0.002014025451011231 -0.0007882157504727049
664 2.8697049028007945e-05 0.0020296442633272772 0.00017734649752103033
846 0.0004656540990012224 0.0027001298118200933 0.00043639078113031954
1050 -0.002825775593987078 0.0004727221442735939 0.004692969134092466
957 -0.002165634682596892 0.0017874262331427594 -0.0004504718856850118
844 0.0018973956118547774 0.0024509255356391715 0.0021806343808057527
97 -0.0012440537435169604 0.001054320386430871 -0.008050998459479312
956 -4.3728721961195185e-06 0.003684515936965174 -0.0008048850419566317
74 0.0011044333870362075 -0.00013336629169362598 -0.00045135737792721485
73 0.0027231863700521676 0.0011687076693811008 0.0004756840851840834
694 -0.002355415755512634 0.0026503081386268753 0.005287287729554646
695 0.0007882527879157804 1.6637857897294013e-06 0.0039429427137173895
696 0.0031500868819071435 -0.001988259276698965 0.002932938049221473
216 -0.002832452191665094 -0.000826037476462774 -0.0014552139920295947
845 0.001079864306777107 0.0025932223785455942 0.00118466287783943
670 0.0007465352450460314 0.00043970720392743127 -0.00018401498267914165
587 0.00045337494622454857 -0.0026856390754525627 0.002239481864860359
667 0.003730008309945787 0.0038048546310021115 0.0008694684567853868
949 0.002814569995207114 0.0028079838083509513 0.0040401113528569284
588 -0.0004270785247713502 -0.0037729572586600673 0.0016806589754857452
977 0.005168951520796949 0.0017575738392552435 0.003656534580647907
976 0.005519401423950185 0.0012865945395936003 0.001820609051703819
978 0.005869851327103422 0.0008156152399319502 -1.5316477240273586e-05
314 -0.0003527823142749037 -0.004674235554102068 0.003765911319419384
315 -0.0017300349458111654 -0.004348540652707906 0.004063739199430188
446 -0.00031347556822592244 0.0004394217888732939 0.0024363307496799553
671 -0.001137253901116229 0.0004116934918321262 0.0007936026193713735
445 0.001435735634893184 0.0018299154941412194 0.003094487471430596
672 -0.0025525422401485223 0.00039064682631636735 0.0015280854541586766
447 -0.001627655673426451 -0.0006052543260585192 0.001941858459377688
313 0.0014803802203541625 -0.005107744757340623 0.003369493916466371
950 0.0019765657826758746 0.0032734768969146072 0.0035316125333605176
621 -0.004408164073578165 0.0012404695763359465 -0.002157688903783276
865 -0.00032787830851229116 -0.00011497995629772338 0.0036410470725770088
365 0.0013674424111226795 0.0013765781459077599 0.008839146922817174
202 -0.0027762687328269594 0.003234277764087951 0.0026004921000306576
543 0.003187789028529703 -0.004341725748811804 -0.002173453733542938
203 0.00021376789498228914 0.0016359808139148485 0.0037835599867490507
104 -0.004248214834956159 -0.0010576120263692563 0.0060521703591442854
867 -0.0007817469416100378 -0.003371624808366268 -0.0023817926600215385
348 0.0038436275432278968 -0.005262514517926989 -0.0002590201912560763
866 -0.0005870394857353281 -0.0019745398644125042 0.00020197655414846646
103 -0.0020039861069741575 -0.0008446997104144858 0.0021764700688943015
347 0.003688991902042425 -0.0039351596661527585 0.00032549896157164595
542 0.0023502299218963922 -0.0018988147276635088 0.00041781077608395514
346 0.0034831674531006574 -0.0021684124995734032 0.0011035106256638617
541 0.0012354148620733164 0.0013527695182901736 0.003866857746546726
105 -0.005934300963706267 -0.0012175727728365772 0.008963978953832103
940 0.004394320925106859 -0.003988099151863227 0.003119626458514406
941 0.0005109958264921489 -0.002136540713780734 0.0006911139451065661
912 -0.000290745219380151 0.00036052053413613953 -0.003662722213312624
101 -0.003525563386536616 -0.002333465935574 -0.0004100357692517323
910 0.005972389237414827 -0.001157238954461274 -0.002317935150267426
911 0.002396109273208584 -0.0002905909706125536 -0.003085815045369252
100 0.0006447129027543842 -0.001178535063719179 -0.0021647018702356923
798 0.0031256895304105203 0.0006335362713925086 -0.00858454207082002
797 0.00020762268360812415 0.0001676685910622129 -0.00492078507741646
291 0.002532499550440588 -0.005059400007911871 -0.0033373858662379646
619 -0.0042017932699427215 0.002321332681260609 -0.005486351967063828
942 -0.0024065412768177453 -0.0007454672638707075 -0.0011334243523043932
796 -0.003676407518704501 -0.000452414578953936 -4.422002137372417e-05
555 0.002718098330044014 0.0026678664476647612 -0.0005331085571343855
554 0.0027898780876859123 0.003028155003633058 -0.001089221147424504
620 -0.0043196319935610294 0.001704154638404108 -0.0035856693132069305
102 -0.006658686546737704 -0.003201163999688306 0.0009082425936303699
616 -0.0005021370272714821 0.0001555678348097167 -0.0026928929906639286
876 0.0019268778374891466 -0.0030795516366750614 0.0018779372648232862
925 -0.0014742049290958565 0.0037817429195078412 -0.0032197355964186884
553 0.0028854189924123843 0.0035077093477913794 -0.0018294228665660626
424 -0.0026780577088122834 0.0012808035559521334 0.001386612164547036
190 0.001497292362441568 0.0011477489113328127 -0.005475958710233356
982 -0.0005640480222845847 -0.0021664869692883375 0.001086304152406091
927 0.0032696481026933404 -0.0020689062368351935 0.00428772588227523
874 0.0013944579482019076 -0.0017332397555275205 0.006713398513210338
926 0.0012345580182365015 0.0004409940501091553 0.0010670610951603319
144 -0.00368455095566255 0.0037110822251977525 -0.0016080155120972485
143 -0.0012374494022353688 0.00101968740309564 -0.0005487346634403084
875 0.0016984722713395944 -0.0025019903291156626 0.003952326832633378
99 0.0052303235267788205 0.003558517240937314 0.0008931835726302757
983 0.0021467253107753286 -0.00023991418074064547 -0.0021154873750076734
192 -0.0024470968319913345 0.0010804291986210638 -0.0037259209528732293
191 -0.0007549728802082965 0.0011093090308819048 -0.004476678715300242
900 -0.0019783420484187574 -0.0008028210343344264 0.0029419957797679783
98 0.0024528468854246492 0.002484228861010003 -0.0029438274066618184
245 -0.00016228635280087688 -0.0026543243215070554 -0.0030072403913374898
244 -0.003052798072149747 -0.0008161861326015088 -0.007830747537016146
246 0.0020093513480346063 -0.004035315155639328 0.0006166542629158782
884 -0.004503457534300716 -0.0016979044443607481 0.0008702462072005563
883 -0.0005133700229799946 -0.0015491255441440895 0.0027633415063708015
887 -0.0022299183726443854 0.0027447773477879815 -0.0015809857109722984
886 -0.005901674964020625 0.005895984751703568 0.0007797150745214182
888 0.0005286675859415609 0.0003772793177033401 -0.003354577145268569
21 -0.0024011314577663864 0.004833766386854907 -0.0024520791387996994
529 -0.002605626037623867 0.005111820662146954 0.0012354155357969393
618 0.003647544182036213 0.003198077301850598 0.0008680713689102057
928 0.0017750092706159024 0.0016533091329178381 0.00066907452253991
530 -0.00036118374416718377 0.0059287408149466155 0.0012313420140947703
210 0.004858761009533867 -0.004548064566801252 -0.0004126201930002261
929 0.0003312559625383263 0.0012923603278119317 0.0016417564401194364
87 0.0010244996323849915 0.004390811946531746 -0.0014701870708984468
86 -0.0005693933049905839 0.004619516543456419 0.0018029515757724815
172 -0.0007235091455591009 0.0024161325737983683 -0.005400980014616545
715 -0.00207498234221807 0.001647903192413144 0.003851870855055779
85 -0.0026909102657152045 0.0049239288850847695 0.006159592471082109
594 0.001987027462858269 0.0012213216284431736 -0.0020091632693322705
173 -0.00011753403058934627 0.0020202677849330626 -0.004353769842983736
174 0.00033773428630676293 0.001722855083168673 -0.003567002201049215
250 -0.0035974508494078065 -0.0008499562568864776 0.007716528601385081
802 0.011336730121711795 7.793390659792485e-05 0.008551190172632873
716 -0.00237765495872271 0.002484594412274728 0.002470338089115116
370 0.0014115110924995378 0.00013199269292526745 -0.003926191058138759
371 0.0015818327673886232 0.0008140108463476568 -0.000756520372240235
112 0.0006624929038898202 -0.0009411228642792037 0.0012560528361509344
113 -0.0015783640398388291 0.002732872039577365 -0.00026038938207627007
870 -0.0015815881232346726 -0.0009044106506998744 -0.0031210448356008974
563 -2.7240116582679427e-05 -0.0012691282567462209 -8.60214557132085e-05
869 0.00017821760996156942 -0.0012712209332100396 0.00012216415443230767
649 0.0008783734002148673 0.004242864851508021 0.005343566642608918
564 -0.002432477774071478 -0.00027427762829533185 -0.00021047981047880835
868 0.0025205692340948558 -0.0017594558814085452 0.004438967823102259
114 -0.003261916951458334 0.005493139639422853 -0.0013996904512248963
13 -0.0011187672458175335 0.003184979353490145 0.0005506310829645588
666 0.0012760427055306714 -0.011400865291307906 -0.0034821852277243212
665 0.000740937431309839 -0.005639241429716155 -0.001912263757161152
14 -0.001804723861283321 0.002610401711122915 0.0014499184854877987
856 -0.0018577364874864468 0.0018917311674600589 0.001622570904102608
650 0.0050753804502921464 0.0006701503294910907 0.0018422893399223422
885 -0.0075012050996241435 -0.0018096818388741729 -0.0005520338325007326
20 -0.003129343669421261 0.0037266080501038045 -0.0033195532634364322
15 -0.0023200821756300173 0.002178722274617148 0.0021255519430977894
577 0.0029587373341205337 -0.002887878849636026 0.003021123375566075
578 0.004834080123141354 -0.0005515323865936914 0.0018699498680729981
413 0.0012279565048921963 -0.00044750961074186454 -0.0022512625828561843
414 0.007606573879712504 0.001318441296783524 -0.0034108138184281286
214 0.0036224049203691195 -0.00032939674473686444 0.0028934575939223435
205 -0.0012072179965808578 -0.0012820513428095245 -0.005032171394354655
617 0.0018673509454144072 0.0018928554059046282 -0.0006595651768915294
19 -0.0040986148932315525 0.0022529487254739815 -0.0044741860654594
215 -6.334960411464159e-05 -0.0006129809964453938 0.0004103451570050319
75 -0.00011173362682708734 -0.0011116127676439286 -0.001147842425212785
579 0.006243022725022581 0.001203761676873829 0.0010050747069239815
31 0.001577205666271979 0.00458126131162238 -0.0012792415253948966
537 -0.002699460334790643 0.0051187911355196295 0.0015135262107871601
32 -0.0007377287114165125 0.003029877410082341 -0.0020138758121780167
33 -0.002476935902965592 0.0018643246996396003 -0.002565805597767673
536 -0.0011028971766841819 0.007008346893157071 0.0029929852543686577
535 0.001022173923993395 0.009523399500556952 0.004962187438565291
721 -0.0037687904728581547 -0.0013471185108593635 0.008457058347375139
633 0.0003244145530696503 0.0024548430032735806 -0.0007213866605145407
632 -0.002207095817152098 0.0017308658236671306 -0.00012588529653251388
631 -0.005576608323756661 0.0007672315483050454 0.0006667440038411355
722 0.0006603121075890973 -0.0018009609380967167 0.004343829479773538
723 0.0039878911241978225 -0.0021419321642743815 0.0012535659734001286
419 -0.0011721356617800445 0.0004673722504784412 -0.001279106808040309
418 -0.001470667749310412 5.701175652791528e-05 -0.00015280417738381498
727 0.0028922337260147623 5.2370994131456777e-05 0.00014241168542108602
420 -0.0009478488921224885 0.0007756755566477651 -0.0021252965117218455
728 -0.0009274470760071012 -0.0030560350672453637 9.02927412171217e-05
108 -0.002806988788108527 0.0016270547446905937 0.006221839376602818
1012 0.0014833946301954929 -0.00031310500450072156 -0.0019046608142287995
1013 0.00315878702774093 -0.0003491363468519375 -0.003267367843528479
78 0.0009082075877543192 -0.0005364944596108632 -0.004762907586305223
1018 0.003212101926643255 -0.0007379021273559086 0.0010398830901958518
1019 0.001556728028543633 0.0013738452045689293 0.003188251143831709
77 0.001142761116199526 0.0016087655067217321 -0.003316796358171544
76 0.0014549585525051633 0.004464167709100479 -0.0013919810674836667
818 0.0033594639488011275 -0.0036539527720182803 -0.0009282565639568408
647 -0.004753818592009504 -0.0029348853293855413 0.0011848566238619263
819 0.002892709351654204 -0.003922038191769541 -0.0007791054227103337
646 -0.000537250253339173 -0.0036793283612897385 0.0017179696959900897
817 0.00398072763039686 -0.003297123431986351 -0.0011267809870507217
441 0.0047186446966775535 0.0012911399852317546 -0.01007621110205536
832 0.004644343023547561 -0.0004914107517975017 -0.0010798405590545465
833 -0.0001773161097309664 0.0019925009634727923 0.0023952697583926974
1014 -0.00019199776734994613 -0.00027707366214950647 -0.0005419537849291106
717 -0.0026050525024213264 0.0031131994391447636 0.001432394316262292
851 0.0025000885217836143 0.0012933964365666056 0.0011186951853028179
628 0.00360680123636274 0.0009293121952059303 -0.001766426446018608
857 -0.0012032358379178935 7.775251961262631e-07 0.002752564884340205
858 -0.0007115103498978885 -0.0014198934904528129 0.003601527894168055
499 -0.0021318627981951116 -0.004971600452466094 -0.0063212603727766685
500 0.0029369146789785033 0.002839242291048076 -0.0036343897907774223
501 0.00674508061475114 0.008707518300298636 -0.0016157474119637386
850 -0.0019518760966192165 -0.0009779224518339869 0.003875499916887079
634 0.0016579656827070055 0.0035109302991565613 -0.0036663367024814173
635 0.002000036166657412 0.0012781874659274868 -0.002676509729742203
609 0.0023635828312789644 0.0013394640478769913 -0.003767067209788845
608 0.004337389730598347 0.000818842334729511 -0.0022963238346241275
450 -0.0006743366876457833 0.0018073909811555187 -0.007916688060415898
766 -0.001426750833079056 0.0015787372692774265 0.004650905575517289
449 -0.0007946603434303306 0.0030728119382050926 -0.00802004357107243
629 0.0019037570417880707 0.0017052461316139438 -0.0013466966356056053
981 -0.00013114791237990825 0.00014916348171698505 0.004936926167711945
630 0.0006242621501498251 0.0022882042903308716 -0.0010313541741459706
607 0.006964583010591306 0.00012587998533700791 -0.00033872245367888706
636 0.0022570332770019685 -0.00039926932501149737 -0.001932854010612805
206 -0.0007095864779459605 -0.0017277338819890002 -0.004530105978984046
918 -0.0007084272665777373 -0.0013889589438110578 -0.0030400699270620754
226 -0.0027373764800027707 0.0003635523202439911 -0.002471351716129521
228 -6.432723164266976e-06 0.0010686102790189419 0.0025741092103823133
227 -0.001177994431233287 0.0007661438132041031 0.00040963079289095425
207 -0.00033571656427026344 -0.002062574594866048 -0.004152904884449114
979 -0.0016679343352132745 -0.0003443910689211971 0.00142042999220345
980 -0.003204720758046643 -0.000837945619559377 -0.002096066183305049
299 0.0027138011608710275 0.003364931575832504 0.0034903227331929466
767 0.0008060867117434031 0.00030669760903140114 0.0013006169030448569
916 -0.002479884113249781 0.0005337468350704103 -3.763213489741779e-05
768 0.0024836146593795053 -0.0006489841357118781 -0.001216450625559431
917 -0.0014683737150758996 -0.000564127432440697 -0.0017520385864856942
951 0.0013469743061183194 0.003623201249816003 0.0031495780306609426
433 -0.000867164738273276 0.0021118637140631405 0.005511626000664024
329 0.00042565859999164977 -0.001701171986500797 -0.003614643624069214
67 -0.002273065881634445 0.0033800374696242533 0.009289677051529346
68 0.002452701186428261 0.004174679452206747 0.00016938946058673372
69 0.0060031638473039585 0.004771692941718402 -0.006682670761959124
209 0.004689919393873328 -0.0036003245537018515 -0.0019736353253226304
208 0.004465186387721877 -0.002338855564788216 -0.0040513909897794175
321 -0.005144789725463537 -0.0007385785210211509 0.004164332600923935
349 0.001091383774166522 0.006445390582817254 0.0008495430395685773
328 0.0023440125129561367 0.004572393583478204 0.003722197756791519
320 -0.0038687450735168803 -0.0009746668019821605 0.0030259057732079948
189 -0.007662332529879954 -0.0012025257558405831 -0.005781374024280346
319 -0.0021702932463795763 -0.0012889070376606057 0.0015106271952628242
350 0.0014459273767867549 0.00041743167733468813 -0.00025654704269861605
735 0.003243759409718116 0.0024301266299284574 -0.010654405016707134
187 0.0047814369905109545 0.0046583160720325345 0.0022833158238464153
330 -0.0010155982034498559 -0.006414493651738274 -0.009126803025144462
251 0.0016849676549137889 0.0014817296950116988 0.004085624524041711
593 0.001514064966944508 7.450835114700637e-06 -0.001770350936811893
987 0.0011852871861186243 0.002479733192060328 -0.0016427635451256735
480 0.0025138397967980983 0.004494309666431584 0.00710302595401264
188 -0.0023240153867237568 0.0013117471380597492 -0.0023216609526145477
985 -0.001557245452664111 0.002406735697635375 0.0022374425086488818
986 -0.004299778091446847 0.0023337382032103996 0.006117648562423427
478 -0.00024291402382866484 0.006933600305018678 -0.006036405965934956
93 -0.006158836376948303 -0.0038347162131709316 3.3190210715258175e-05
92 -0.005051730925990056 -0.00397879388043334 -0.001236604942172381
129 -0.005917377887027 0.0031746226061072245 -0.0046148002067908245
479 0.0013312056957728146 0.005540753592588532 0.0014662729946580328
592 0.0008845383950281785 -0.0016082458128765273 -0.0014524849108124291
406 0.0037164118440561477 -0.0042040341644752266 -0.003840194311670445
407 -0.0021858724071026773 -0.004597642073020725 -0.0023055492821917037
220 0.0037127412632170656 -0.0029159694623144272 -0.00626506195245712
1020 0.004867475824742877 -0.0028496494592807494 -0.0011084849634400038
128 -0.0023578453925211604 0.001234385924132603 -0.0027700356342988896
408 -0.006620250899694055 -0.00489335918353186 -0.0011525724645898238
252 0.005653641816926845 0.0032335223225092224 0.0013577310061934776
776 -0.0011369064288458007 -0.000737266518666022 -0.0049540951530535615
775 -0.0011466106437702365 -0.0010338037539526005 -0.0066212434889594395
60 -0.006106076058093135 0.0009066261431144562 -0.001888640757845499
278 0.002165835433649906 0.0019212423928105231 -0.003328359848859222
222 0.004669294459247331 0.003622737510699231 0.005535392998949302
221 0.004258937748899904 0.0008176637369592189 0.00047305470500149174
736 -0.0034219301031758144 -0.006259914505102665 0.0019016989825788573
738 -0.0001046187283097555 0.0015259337710676348 -0.00034126158347643366
737 -0.001527729318120669 -0.0018141576102927697 0.0006209576879087975
59 -0.004352937075941207 -0.0001321439070005994 -0.003115241572498676
279 -1.7130939639687422e-05 0.002112290628724478 -0.005180798554556949
58 -0.002019459087597221 -0.0015147764715443953 -0.004747882241959259
1023 -0.0024265077843081267 -0.0008993844588553276 0.00044909867332577316
814 0.0009885298860534586 -0.001022297110741767 0.0031928971309247585
412 -0.007262165152171984 -0.0027980406371801467 -0.0007078668155434779
679 -0.0005336013252450239 -0.0029162240899190386 -0.001139153917546386
1022 -0.0027320633244649903 -0.000571083849889453 -0.002630758582018904
816 -0.004178272722448719 0.0021123730778300053 -0.0007564050342650794
434 -0.0015444222119717027 -0.00025869112771251626 0.005511595063601056
1021 -0.0025792855543865585 -0.0007352341543723903 -0.0010908299543465657
182 0.0015735953805410012 0.0028107737751918967 0.003994718542882034
181 -0.0008249048802526815 0.004971167661499546 0.0036239766489435175
183 0.0033755855115398885 0.0011876726541153058 0.004273256446315059
680 -0.0006774694890365234 -0.0011593205756395637 -0.0035959987600116847
681 -0.0007855574536512983 0.00016063875294573425 -0.005441823099448279
363 0.0001706901652588584 0.007126015387476979 0.004071095764302948
362 -0.0002961303569777323 0.005353910063263495 0.001330548090721701
361 -0.0009174817867481307 0.0029951873326768278 -0.002317199028824636
435 -0.0020532448724061743 -0.002039685901695914 0.0055115718206258345
1035 -0.0016392236941380222 -0.003180534190898439 -0.0017259925107187975
52 -0.003304296735227065 0.0013372712117352189 0.005170844679906409
815 -0.0019617393082711062 0.0007676146765776722 0.0009378265582913347
585 -0.0010767666999309832 0.0002734308277874452 -0.0035937945106113475
154 0.002110168219686479 -0.001839020367983806 -0.006843109665216835
351 0.0017122955249891008 -0.004111366019836319 -0.0010875510850253502
399 -0.0008850157815987559 -0.0024843287329910017 -0.0015905184410968088
398 0.0005883767214441252 -0.0028832756422191687 -0.0008775792135191813
1005 -0.004260876118218131 -0.00025279519482786466 0.0021222617160655518
397 0.0025495041671537554 -0.003414285357181467 7.136323286763507e-05
284 -0.0009861786739732649 -0.0015076673554036105 0.003864960449737945
285 0.0015714510184774162 -0.0022303099817917384 0.005967816180092173
283 -0.004390456743440898 -0.0005458094084392944 0.0010659994949017183
117 -0.0012842374010189445 0.002514562177033899 -0.0032761096709127305
855 0.004224952374993221 -0.0006511465233455885 -0.0008740832943737202
854 0.003022506633949024 -0.0002057763692400122 -0.0009071530137272665
116 -0.0007479525326427769 0.0007484280762928561 -0.0027911389590026385
1003 0.0008133739866681492 -9.992136525655133e-05 0.005509538041461125
115 -3.4142076895765064e-05 -0.0016023467855405108 -0.002145629109096379
584 0.0004024595815641497 0.0019474960326963642 -0.0020230786763114432
1004 0.00588762409155441 5.2952464314767994e-05 0.008896814366856683
853 0.0014220170564139547 0.00038702400873975976 -0.0009511697534026929
648 -0.00792172090878974 -0.0023755862463250487 0.0007843294651266649
582 0.0028623402645744185 -3.812653669179792e-05 0.00592981928511111
333 0.004530616516528842 -0.0012089708036770236 -0.001709119585089428
756 -0.0010114882522232502 -0.003980711495781445 -0.0017648430828469284
656 0.000575707470334317 0.0019474156737802827 0.0031696031715087087
331 0.000610208853730749 0.0025727390506873195 -0.0019005893444463485
332 0.0028487805262220555 0.0004133644953587726 -0.0017912591889366486
754 -1.8704198691524526e-05 -0.002614129226707444 -0.0007061310106465507
755 -0.0005855886786466065 -0.00339445428950832 -0.0013106607070457286
127 0.002379993882793448 -0.0013481244390833934 -0.0003146013718636361
834 -0.003799822354668126 0.0038586606092959833 0.00500611562676052
657 0.0008243124353739856 0.0029090727743924212 0.0034367412471783074
642 -0.005638063037110083 0.004453411562231509 0.004430069046919283
277 0.005071425939152061 0.001666951741723658 -0.0008627110962451273
327 -0.00249049394930126 -0.0014059128277477226 0.0036726554875552513
774 -0.0004441455277119162 -0.0025318597899868897 0.002140453498659928
773 -0.00214345728533107 -0.0023410570819847733 0.001787708634514304
34 -0.005823298597213513 -0.0010418315091435685 0.002794173742174007
772 -0.004405289702559675 -0.0020870932355515357 0.0013181951593334382
448 -0.0009548145611556565 0.004757123324424925 -0.008157612703666254
389 -0.00281756720534383 0.0011854824909607097 -0.0023157759870488345
390 -0.003172295237424978 0.0021942781519417916 -0.002149978001491122
388 -0.0023454140770767873 -0.00015725330671505808 -0.002536457834722883
546 0.0038354273619148433 -0.0032145718640005216 0.002392444760287468
1047 0.0033748481401212763 0.0014810102966498185 -0.002274417966435679
576 0.0004571599287800165 -0.0027277599493020846 -0.0005340743224700624
1045 0.0006071091692618473 -0.002681284641848799 -0.0027010610809572737
760 -0.0021023015051350315 0.0003159583943008141 -0.0033842384423553415
511 -0.0024427075310778723 0.0047008278134264775 0.00011246490275858501
1034 -0.000477955290787288 -0.004442779425596948 -0.00031958084902299164
300 -0.000612239316561721 0.007590338883864905 0.0031153896348730843
565 0.0014219301916661925 0.0013267685372054694 -0.00252854872642335
958 -0.005113967031377158 -0.0036593922486121196 -0.0026189223996669624
53 0.005752700837637743 -0.0004033079877869481 0.003921671696618144
1033 -0.001058589492462657 -0.003811656808247692 -0.0010227866798708928
35 -0.00414709671135785 -0.005186209555347293 0.003130717307198717
566 -0.0025478220548068083 0.0011371697012093243 0.0007323901592727671
36 -0.0028877684114000535 -0.008299875399151006 0.003383562050532217
960 0.003899596095250986 0.0013641665668624662 0.0019466714264379113
959 3.2820960839136364e-05 -0.0007909159505658243 -1.1946318020126655e-05
567 -0.005530291762059555 0.0009947243419576887 0.003182329309110696
54 0.012557211351796549 -0.0017110028798955038 0.0029831696565762473
512 -0.0031794042953200118 0.002759391724045735 -0.00045536732875774903

Bonds

1 2 179 180
2 1 379 380
3 1 259 260
4 2 260 261
5 2 590 591
6 1 589 590
7 1 742 743
8 2 518 519
9 1 517 518
10 2 380 381
11 2 524 525
12 1 430 431
13 2 431 432
14 1 748 749
15 3 1027 1028
16 3 1027 1029
17 2 749 750
18 1 316 317
19 1 946 947
20 1 889 890
21 1 265 266
22 2 842 843
23 1 241 242
24 2 218 219
25 2 242 243
26 1 799 800
27 1 217 218
28 2 947 948
29 2 800 801
30 1 40 41
31 2 41 42
32 1 133 134
33 1 688 689
34 2 689 690
35 1 637 638
36 2 740 741
37 1 739 740
38 1 301 302
39 2 302 303
40 1 79 80
41 2 80 81
42 2 764 765
43 1 763 764
44 2 743 744
45 2 638 639
46 1 178 179
47 2 323 324
48 1 322 323
49 1 16 17
50 2 17 18
51 2 293 294
52 1 292 293
53 1 22 23
54 1 94 95
55 2 95 96
56 2 527 528
57 2 317 318
58 2 521 522
59 1 520 521
60 1 193 194
61 1 523 524
62 2 194 195
63 1 658 659
64 2 659 660
65 2 200 201
66 1 49 50
67 1 403 404
68 1 808 809
69 1 862 863
70 2 863 864
71 1 931 932
72 2 809 810
73 2 233 234
74 2 932 933
75 2 386 387
76 2 506 507
77 1 376 377
78 2 377 378
79 1 232 233
80 3 994 995
81 3 994 996
82 2 224 225
83 1 514 515
84 2 515 516
85 1 223 224
86 2 71 72
87 1 268 269
88 2 785 786
89 1 784 785
90 2 827 828
91 1 826 827
92 1 166 167
93 2 167 168
94 2 374 375
95 2 791 792
96 1 790 791
97 2 668 669
98 1 394 395
99 1 88 89
100 3 991 992
101 3 991 993
102 2 758 759
103 1 364 365
104 1 61 62
105 2 62 63
106 1 757 758
107 2 305 306
108 1 280 281
109 2 281 282
110 3 1009 1010
111 3 1009 1011
112 3 1039 1040
113 3 1039 1041
114 1 922 923
115 1 481 482
116 1 304 305
117 2 821 822
118 2 731 732
119 2 236 237
120 2 560 561
121 2 482 483
122 1 820 821
123 2 677 678
124 1 676 677
125 1 559 560
126 2 860 861
127 1 703 704
128 2 395 396
129 2 485 486
130 2 782 783
131 1 781 782
132 1 484 485
133 1 778 779
134 2 779 780
135 1 838 839
136 2 839 840
137 2 881 882
138 2 704 705
139 2 908 909
140 1 682 683
141 2 89 90
142 2 401 402
143 1 199 200
144 2 905 906
145 2 296 297
146 1 295 296
147 2 44 45
148 2 353 354
149 1 43 44
150 1 352 353
151 1 28 29
152 1 904 905
153 2 683 684
154 2 50 51
155 1 340 341
156 2 131 132
157 1 730 731
158 1 130 131
159 1 235 236
160 2 752 753
161 1 751 752
162 2 923 924
163 2 830 831
164 2 158 159
165 2 596 597
166 1 157 158
167 1 46 47
168 2 47 48
169 1 502 503
170 1 595 596
171 1 229 230
172 2 230 231
173 3 1030 1031
174 3 1030 1032
175 2 155 156
176 1 769 770
177 1 835 836
178 1 373 374
179 2 476 477
180 1 547 548
181 1 118 119
182 2 770 771
183 2 119 120
184 1 106 107
185 1 10 11
186 2 11 12
187 2 662 663
188 2 701 702
189 2 440 441
190 1 709 710
191 1 700 701
192 1 580 581
193 1 439 440
194 2 107 108
195 1 661 662
196 1 625 626
197 2 626 627
198 3 1042 1043
199 3 1042 1044
200 2 38 39
201 1 37 38
202 1 673 674
203 1 457 458
204 2 458 459
205 2 794 795
206 2 443 444
207 1 442 443
208 1 298 299
209 1 343 344
210 2 344 345
211 1 415 416
212 1 532 533
213 2 416 417
214 1 475 476
215 2 533 534
216 1 859 860
217 1 793 794
218 2 836 837
219 2 5 6
220 1 4 5
221 1 25 26
222 2 197 198
223 2 26 27
224 1 196 197
225 1 55 56
226 1 880 881
227 1 253 254
228 2 803 804
229 1 934 935
230 2 935 936
231 1 937 938
232 2 938 939
233 3 988 989
234 3 988 990
235 3 1000 1001
236 3 1000 1002
237 1 400 401
238 2 368 369
239 2 161 162
240 1 367 368
241 1 124 125
242 2 125 126
243 2 848 849
244 1 847 848
245 2 341 342
246 1 562 563
247 1 160 161
248 2 254 255
249 2 692 693
250 1 745 746
251 2 509 510
252 1 508 509
253 2 746 747
254 1 952 953
255 2 953 954
256 2 503 504
257 1 829 830
258 2 548 549
259 1 787 788
260 1 550 551
261 2 551 552
262 2 335 336
263 2 491 492
264 1 334 335
265 2 788 789
266 1 490 491
267 1 1 2
268 2 710 711
269 1 685 686
270 2 686 687
271 1 892 893
272 2 2 3
273 2 611 612
274 2 893 894
275 3 1006 1007
276 3 1006 1008
277 2 890 891
278 2 581 582
279 1 610 611
280 1 574 575
281 2 575 576
282 2 674 675
283 1 454 455
284 3 970 971
285 3 970 972
286 2 455 456
287 1 175 176
288 2 176 177
289 3 961 962
290 3 961 963
291 3 1015 1016
292 3 1015 1017
293 2 146 147
294 1 613 614
295 1 583 584
296 2 761 762
297 1 724 725
298 2 725 726
299 1 451 452
300 2 614 615
301 2 338 339
302 1 337 338
303 2 452 453
304 2 23 24
305 1 472 473
306 2 56 57
307 2 263 264
308 1 262 263
309 2 473 474
310 2 212 213
311 1 211 212
312 2 557 558
313 1 556 557
314 1 421 422
315 2 599 600
316 2 422 423
317 2 356 357
318 1 598 599
319 1 355 356
320 1 601 602
321 2 602 603
322 1 163 164
323 1 139 140
324 1 823 824
325 1 706 707
326 2 707 708
327 2 164 165
328 2 824 825
329 2 140 141
330 1 145 146
331 2 65 66
332 1 385 386
333 2 269 270
334 3 997 998
335 3 997 999
336 2 497 498
337 1 64 65
338 1 496 497
339 1 691 692
340 1 70 71
341 2 812 813
342 1 811 812
343 1 568 569
344 2 569 570
345 2 287 288
346 1 286 287
347 2 137 138
348 1 310 311
349 2 734 735
350 2 185 186
351 2 653 654
352 2 311 312
353 1 652 653
354 1 526 527
355 2 539 540
356 2 359 360
357 1 358 359
358 1 895 896
359 2 275 276
360 1 538 539
361 1 274 275
362 2 257 258
363 1 91 92
364 1 256 257
365 2 470 471
366 1 469 470
367 2 713 714
368 2 719 720
369 3 1024 1025
370 3 1024 1026
371 1 712 713
372 2 410 411
373 1 409 410
374 1 544 545
375 1 718 719
376 2 404 405
377 1 505 506
378 1 604 605
379 2 902 903
380 1 901 902
381 3 967 968
382 3 967 969
383 2 605 606
384 1 142 143
385 2 572 573
386 1 571 572
387 1 733 734
388 1 460 461
389 2 461 462
390 1 436 437
391 2 239 240
392 1 877 878
393 2 437 438
394 2 878 879
395 2 152 153
396 2 896 897
397 1 238 239
398 3 964 965
399 3 964 966
400 2 944 945
401 1 943 944
402 2 464 465
403 1 463 464
404 2 266 267
405 1 841 842
406 1 655 656
407 2 545 546
408 1 805 806
409 2 134 135
410 2 806 807
411 2 494 495
412 1 493 494
413 3 1036 1037
414 3 1036 1038
415 1 325 326
416 2 920 921
417 2 326 327
418 1 919 920
419 2 83 84
420 1 148 149
421 2 425 426
422 2 428 429
423 1 427 428
424 1 640 641
425 2 149 150
426 2 641 642
427 1 82 83
428 1 151 152
429 1 898 899
430 2 899 900
431 1 121 122
432 1 136 137
433 1 184 185
434 2 122 123
435 2 872 873
436 1 871 872
437 2 623 624
438 1 586 587
439 1 955 956
440 1 622 623
441 1 643 644
442 2 29 30
443 2 644 645
444 1 7 8
445 1 907 908
446 2 488 489
447 1 487 488
448 2 8 9
449 2 698 699
450 2 272 273
451 1 382 383
452 1 697 698
453 2 914 915
454 1 913 914
455 3 973 974
456 3 973 975
457 1 289 290
458 2 290 291
459 2 383 384
460 3 1048 1049
461 3 1048 1050
462 1 271 272
463 1 664 665
464 1 844 845
465 1 97 98
466 2 956 957
467 2 74 75
468 1 73 74
469 1 694 695
470 2 695 696
471 2 845 846
472 1 670 671
473 2 587 588
474 1 667 668
475 1 949 950
476 3 976 977
477 3 976 978
478 2 314 315
479 2 446 447
480 2 671 672
481 1 445 446
482 1 313 314
483 2 950 951
484 1 865 866
485 2 365 366
486 1 202 203
487 2 203 204
488 2 104 105
489 2 866 867
490 1 103 104
491 2 347 348
492 2 542 543
493 1 346 347
494 1 541 542
495 1 940 941
496 2 941 942
497 2 101 102
498 1 910 911
499 2 911 912
500 1 100 101
501 2 797 798
502 1 619 620
503 1 796 797
504 2 554 555
505 2 620 621
506 1 616 617
507 1 925 926
508 1 553 554
509 1 424 425
510 1 190 191
511 3 982 983
512 3 982 984
513 1 874 875
514 2 926 927
515 2 143 144
516 2 875 876
517 2 191 192
518 2 98 99
519 2 245 246
520 1 244 245
521 2 884 885
522 1 883 884
523 2 887 888
524 1 886 887
525 1 529 530
526 1 928 929
527 2 530 531
528 2 929 930
529 2 86 87
530 1 172 173
531 1 715 716
532 1 85 86
533 2 173 174
534 1 250 251
535 1 802 803
536 2 716 717
537 1 370 371
538 2 371 372
539 1 112 113
540 2 113 114
541 2 563 564
542 2 869 870
543 1 649 650
544 1 868 869
545 1 13 14
546 2 665 666
547 2 14 15
548 1 856 857
549 2 650 651
550 2 20 21
551 1 577 578
552 2 578 579
553 2 413 414
554 1 214 215
555 1 205 206
556 2 617 618
557 1 19 20
558 2 215 216
559 1 31 32
560 2 32 33
561 2 536 537
562 1 535 536
563 1 721 722
564 2 632 633
565 1 631 632
566 2 722 723
567 2 419 420
568 1 418 419
569 1 727 728
570 2 728 729
571 3 1012 1013
572 3 1012 1014
573 3 1018 1019
574 3 1018 1020
575 2 77 78
576 1 76 77
577 2 818 819
578 2 647 648
579 1 646 647
580 1 817 818
581 1 832 833
582 2 833 834
583 2 851 852
584 1 628 629
585 2 857 858
586 1 499 500
587 2 500 501
588 1 850 851
589 1 634 635
590 2 635 636
591 2 608 609
592 1 766 767
593 2 449 450
594 2 629 630
595 1 607 608
596 2 206 207
597 1 226 227
598 2 227 228
599 3 979 980
600 3 979 981
601 2 299 300
602 2 767 768
603 1 916 917
604 2 917 918
605 1 433 434
606 2 329 330
607 1 67 68
608 2 68 69
609 2 209 210
610 1 208 209
611 1 349 350
612 1 328 329
613 2 320 321
614 1 319 320
615 2 350 351
616 1 187 188
617 2 251 252
618 2 593 594
619 2 188 189
620 3 985 986
621 3 985 987
622 1 478 479
623 2 92 93
624 2 479 480
625 1 592 593
626 1 406 407
627 2 407 408
628 1 220 221
629 2 128 129
630 2 776 777
631 1 775 776
632 2 278 279
633 2 221 222
634 1 736 737
635 2 737 738
636 2 59 60
637 1 58 59
638 1 814 815
639 1 412 413
640 1 679 680
641 2 434 435
642 3 1021 1022
643 3 1021 1023
644 2 182 183
645 1 181 182
646 2 680 681
647 2 362 363
648 1 361 362
649 1 52 53
650 2 815 816
651 1 154 155
652 2 398 399
653 1 397 398
654 2 284 285
655 1 283 284
656 2 854 855
657 2 116 117
658 3 1003 1004
659 3 1003 1005
660 1 115 116
661 2 584 585
662 1 853 854
663 2 656 657
664 1 331 332
665 2 332 333
666 1 754 755
667 2 755 756
668 1 127 128
669 1 277 278
670 2 773 774
671 1 34 35
672 1 772 773
673 1 448 449
674 2 389 390
675 1 388 389
676 3 1045 1046
677 3 1045 1047
678 1 760 761
679 1 511 512
680 1 565 566
681 1 958 959
682 2 53 54
683 3 1033 1034
684 3 1033 1035
685 2 35 36
686 2 566 567
687 2 959 960
688 2 512 513

Angles

1 1 178 179 180
2 1 259 260 261
3 1 589 590 591
4 1 517 518 519
5 1 379 380 381
6 1 523 524 525
7 1 430 431 432
8 2 1028 1027 1029
9 1 748 749 750
10 1 841 842 843
11 1 217 218 219
12 1 241 242 243
13 1 946 947 948
14 1 799 800 801
15 1 40 41 42
16 1 688 689 690
17 1 739 740 741
18 1 301 302 303
19 1 79 80 81
20 1 763 764 765
21 1 742 743 744
22 1 637 638 639
23 1 322 323 324
24 1 16 17 18
25 1 292 293 294
26 1 94 95 96
27 1 526 527 528
28 1 316 317 318
29 1 520 521 522
30 1 193 194 195
31 1 658 659 660
32 1 199 200 201
33 1 862 863 864
34 1 808 809 810
35 1 232 233 234
36 1 931 932 933
37 1 385 386 387
38 1 505 506 507
39 1 376 377 378
40 2 995 994 996
41 1 223 224 225
42 1 514 515 516
43 1 70 71 72
44 1 784 785 786
45 1 826 827 828
46 1 166 167 168
47 1 373 374 375
48 1 790 791 792
49 1 667 668 669
50 2 992 991 993
51 1 757 758 759
52 1 61 62 63
53 1 304 305 306
54 1 280 281 282
55 2 1010 1009 1011
56 2 1040 1039 1041
57 1 820 821 822
58 1 730 731 732
59 1 235 236 237
60 1 559 560 561
61 1 481 482 483
62 1 676 677 678
63 1 859 860 861
64 1 394 395 396
65 1 484 485 486
66 1 781 782 783
67 1 778 779 780
68 1 838 839 840
69 1 880 881 882
70 1 703 704 705
71 1 907 908 909
72 1 88 89 90
73 1 400 401 402
74 1 904 905 906
75 1 295 296 297
76 1 43 44 45
77 1 352 353 354
78 1 682 683 684
79 1 49 50 51
80 1 130 131 132
81 1 751 752 753
82 1 922 923 924
83 1 829 830 831
84 1 157 158 159
85 1 595 596 597
86 1 46 47 48
87 1 229 230 231
88 2 1031 1030 1032
89 1 154 155 156
90 1 475 476 477
91 1 769 770 771
92 1 118 119 120
93 1 10 11 12
94 1 661 662 663
95 1 700 701 702
96 1 439 440 441
97 1 106 107 108
98 1 625 626 627
99 2 1043 1042 1044
100 1 37 38 39
101 1 457 458 459
102 1 793 794 795
103 1 442 443 444
104 1 343 344 345
105 1 415 416 417
106 1 532 533 534
107 1 835 836 837
108 1 4 5 6
109 1 196 197 198
110 1 25 26 27
111 1 802 803 804
112 1 934 935 936
113 1 937 938 939
114 2 989 988 990
115 2 1001 1000 1002
116 1 367 368 369
117 1 160 161 162
118 1 124 125 126
119 1 847 848 849
120 1 340 341 342
121 1 253 254 255
122 1 691 692 693
123 1 508 509 510
124 1 745 746 747
125 1 952 953 954
126 1 502 503 504
127 1 547 548 549
128 1 550 551 552
129 1 334 335 336
130 1 490 491 492
131 1 787 788 789
132 1 709 710 711
133 1 685 686 687
134 1 1 2 3
135 1 610 611 612
136 1 892 893 894
137 2 1007 1006 1008
138 1 889 890 891
139 1 580 581 582
140 1 574 575 576
141 1 673 674 675
142 2 971 970 972
143 1 454 455 456
144 1 175 176 177
145 2 962 961 963
146 2 1016 1015 1017
147 1 145 146 147
148 1 760 761 762
149 1 724 725 726
150 1 613 614 615
151 1 337 338 339
152 1 451 452 453
153 1 22 23 24
154 1 55 56 57
155 1 262 263 264
156 1 472 473 474
157 1 211 212 213
158 1 556 557 558
159 1 598 599 600
160 1 421 422 423
161 1 355 356 357
162 1 601 602 603
163 1 706 707 708
164 1 163 164 165
165 1 823 824 825
166 1 139 140 141
167 1 64 65 66
168 1 268 269 270
169 2 998 997 999
170 1 496 497 498
171 1 811 812 813
172 1 568 569 570
173 1 286 287 288
174 1 136 137 138
175 1 733 734 735
176 1 184 185 186
177 1 652 653 654
178 1 310 311 312
179 1 538 539 540
180 1 358 359 360
181 1 274 275 276
182 1 256 257 258
183 1 469 470 471
184 1 712 713 714
185 1 718 719 720
186 2 1025 1024 1026
187 1 409 410 411
188 1 403 404 405
189 1 901 902 903
190 2 968 967 969
191 1 604 605 606
192 1 571 572 573
193 1 460 461 462
194 1 238 239 240
195 1 436 437 438
196 1 877 878 879
197 1 151 152 153
198 1 895 896 897
199 2 965 964 966
200 1 943 944 945
201 1 463 464 465
202 1 265 266 267
203 1 544 545 546
204 1 133 134 135
205 1 805 806 807
206 1 493 494 495
207 2 1037 1036 1038
208 1 919 920 921
209 1 325 326 327
210 1 82 83 84
211 1 424 425 426
212 1 427 428 429
213 1 148 149 150
214 1 640 641 642
215 1 898 899 900
216 1 121 122 123
217 1 871 872 873
218 1 622 623 624
219 1 28 29 30
220 1 643 644 645
221 1 487 488 489
222 1 7 8 9
223 1 697 698 699
224 1 271 272 273
225 1 913 914 915
226 2 974 973 975
227 1 289 290 291
228 1 382 383 384
229 2 1049 1048 1050
230 1 955 956 957
231 1 73 74 75
232 1 694 695 696
233 1 844 845 846
234 1 586 587 588
235 2 977 976 978
236 1 313 314 315
237 1 445 446 447
238 1 670 671 672
239 1 949 950 951
240 1 364 365 366
241 1 202 203 204
242 1 103 104 105
243 1 865 866 867
244 1 346 347 348
245 1 541 542 543
246 1 940 941 942
247 1 100 101 102
248 1 910 911 912
249 1 796 797 798
250 1 553 554 555
251 1 619 620 621
252 2 983 982 984
253 1 925 926 927
254 1 142 143 144
255 1 874 875 876
256 1 190 191 192
257 1 97 98 99
258 1 244 245 246
259 1 883 884 885
260 1 886 887 888
261 1 529 530 531
262 1 928 929 930
263 1 85 86 87
264 1 172 173 174
265 1 715 716 717
266 1 370 371 372
267 1 112 113 114
268 1 562 563 564
269 1 868 869 870
270 1 664 665 666
271 1 13 14 15
272 1 649 650 651
273 1 19 20 21
274 1 577 578 579
275 1 412 413 414
276 1 616 617 618
277 1 214 215 216
278 1 31 32 33
279 1 535 536 537
280 1 631 632 633
281 1 721 722 723
282 1 418 419 420
283 1 727 728 729
284 2 1013 1012 1014
285 2 1019 1018 1020
286 1 76 77 78
287 1 817 818 819
288 1 646 647 648
289 1 832 833 834
290 1 850 851 852
291 1 856 857 858
292 1 499 500 501
293 1 634 635 636
294 1 607 608 609
295 1 448 449 450
296 1 628 629 630
297 1 205 206 207
298 1 226 227 228
299 2 980 979 981
300 1 298 299 300
301 1 766 767 768
302 1 916 917 918
303 1 328 329 330
304 1 67 68 69
305 1 208 209 210
306 1 319 320 321
307 1 349 350 351
308 1 250 251 252
309 1 592 593 594
310 1 187 188 189
311 2 986 985 987
312 1 91 92 93
313 1 478 479 480
314 1 406 407 408
315 1 127 128 129
316 1 775 776 777
317 1 277 278 279
318 1 220 221 222
319 1 736 737 738
320 1 58 59 60
321 1 433 434 435
322 2 1022 1021 1023
323 1 181 182 183
324 1 679 680 681
325 1 361 362 363
326 1 814 815 816
327 1 397 398 399
328 1 283 284 285
329 1 853 854 855
330 1 115 116 117
331 2 1004 1003 1005
332 1 583 584 585
333 1 655 656 657
334 1 331 332 333
335 1 754 755 756
336 1 772 773 774
337 1 388 389 390
338 2 1046 1045 1047
339 1 52 53 54
340 2 1034 1033 1035
341 1 34 35 36
342 1 565 566 567
343 1 958 959 960
344 1 511 512 513
